
     Program PWSCF v.6.7MaX starts on 15Jul2026 at 21: 9:19 

     This program is part of the open-source Quantum ESPRESSO suite
     for quantum simulation of materials; please cite
         "P. Giannozzi et al., J. Phys.:Condens. Matter 21 395502 (2009);
         "P. Giannozzi et al., J. Phys.:Condens. Matter 29 465901 (2017);
          URL http://www.quantum-espresso.org", 
     in publications or presentations arising from this work. More details at
     http://www.quantum-espresso.org/quote

     Parallel version (MPI), running on     8 processors

     MPI processes distributed on     1 nodes
     R & G space division:  proc/nbgrp/npool/nimage =       8
     Reading input from vc_relax.in

     Current dimensions of program PWSCF are:
     Max number of different atomic species (ntypx) = 10
     Max number of k-points (npk) =  40000
     Max angular momentum in pseudopotentials (lmaxx) =  3
     file Sr.pbesol-spn-kjpaw_psl.1.0.0.UPF: wavefunction(s)  4P renormalized
     file Ti.pbesol-spn-kjpaw_psl.1.0.0.UPF: wavefunction(s)  3S 3P 3D renormalized
     file O.pbesol-n-kjpaw_psl.1.0.0.UPF: wavefunction(s)  2S 2P renormalized

     Subspace diagonalization in iterative solution of the eigenvalue problem:
     one sub-group per band group will be used
     scalapack distributed-memory algorithm (size of sub-group:  2*  2 procs)


     Parallelization info
     --------------------
     sticks:   dense  smooth     PW     G-vecs:    dense   smooth      PW
     Min         259     130     38                 8887     3158     516
     Max         260     131     39                 8890     3161     518
     Sum        2077    1041    305                71111    25269    4139



     bravais-lattice index     =            1
     lattice parameter (alat)  =       7.3700  a.u.
     unit-cell volume          =     400.3156 (a.u.)^3
     number of atoms/cell      =            5
     number of atomic types    =            3
     number of electrons       =        40.00
     number of Kohn-Sham states=           20
     kinetic-energy cutoff     =      60.0000  Ry
     charge density cutoff     =     480.0000  Ry
     scf convergence threshold =      1.0E-10
     mixing beta               =       0.3000
     number of iterations used =            8  plain     mixing
     energy convergence thresh.=      1.0E-06
     force convergence thresh. =      1.0E-05
     press convergence thresh. =      1.0E-01
     Exchange-correlation= SLA  PW   PSX  PSC
                           (   1   4  10   8   0   0   0)
     nstep                     =           50


     celldm(1)=   7.370000  celldm(2)=   0.000000  celldm(3)=   0.000000
     celldm(4)=   0.000000  celldm(5)=   0.000000  celldm(6)=   0.000000

     crystal axes: (cart. coord. in units of alat)
               a(1) = (   1.000000   0.000000   0.000000 )  
               a(2) = (   0.000000   1.000000   0.000000 )  
               a(3) = (   0.000000   0.000000   1.000000 )  

     reciprocal axes: (cart. coord. in units 2 pi/alat)
               b(1) = (  1.000000  0.000000  0.000000 )  
               b(2) = (  0.000000  1.000000  0.000000 )  
               b(3) = (  0.000000  0.000000  1.000000 )  


     PseudoPot. # 1 for Sr read from file:
     ./pseudo/Sr.pbesol-spn-kjpaw_psl.1.0.0.UPF
     MD5 check sum: 5f6d651ace59fc2f5ab95f6a3abc31cb
     Pseudo is Projector augmented-wave + core cor, Zval = 10.0
     Generated using &quot;atomic&quot; code by A. Dal Corso  v.6.2.2
     Shape of augmentation charge: PSQ
     Using radial grid of 1221 points,  6 beta functions with: 
                l(1) =   0
                l(2) =   0
                l(3) =   1
                l(4) =   1
                l(5) =   2
                l(6) =   2
     Q(r) pseudized with 0 coefficients 


     PseudoPot. # 2 for Ti read from file:
     ./pseudo/Ti.pbesol-spn-kjpaw_psl.1.0.0.UPF
     MD5 check sum: 37a32a5821746b2d50d64995a8e5b789
     Pseudo is Projector augmented-wave + core cor, Zval = 12.0
     Generated using &quot;atomic&quot; code by A. Dal Corso  v.6.2.2
     Shape of augmentation charge: PSQ
     Using radial grid of 1177 points,  6 beta functions with: 
                l(1) =   0
                l(2) =   0
                l(3) =   1
                l(4) =   1
                l(5) =   2
                l(6) =   2
     Q(r) pseudized with 0 coefficients 


     PseudoPot. # 3 for O  read from file:
     ./pseudo/O.pbesol-n-kjpaw_psl.1.0.0.UPF
     MD5 check sum: cb766521a97cf798d01896eaf7ac9a0a
     Pseudo is Projector augmented-wave + core cor, Zval =  6.0
     Generated using &quot;atomic&quot; code by A. Dal Corso  v.6.3
     Shape of augmentation charge: PSQ
     Using radial grid of 1095 points,  4 beta functions with: 
                l(1) =   0
                l(2) =   0
                l(3) =   1
                l(4) =   1
     Q(r) pseudized with 0 coefficients 


     atomic species   valence    mass     pseudopotential
        Sr            10.00    87.62000     Sr( 1.00)
        Ti            12.00    47.86700     Ti( 1.00)
        O              6.00    15.99900     O ( 1.00)

     48 Sym. Ops., with inversion, found



   Cartesian axes

     site n.     atom                  positions (alat units)
         1           Sr  tau(   1) = (   0.0000000   0.0000000   0.0000000  )
         2           Ti  tau(   2) = (   0.5000000   0.5000000   0.5000000  )
         3           O   tau(   3) = (   0.5000000   0.5000000   0.0000000  )
         4           O   tau(   4) = (   0.5000000   0.0000000   0.5000000  )
         5           O   tau(   5) = (   0.0000000   0.5000000   0.5000000  )

     number of k points=    35
                       cart. coord. in units 2pi/alat
        k(    1) = (   0.0000000   0.0000000   0.0000000), wk =   0.0039062
        k(    2) = (   0.0000000   0.0000000   0.1250000), wk =   0.0234375
        k(    3) = (   0.0000000   0.0000000   0.2500000), wk =   0.0234375
        k(    4) = (   0.0000000   0.0000000   0.3750000), wk =   0.0234375
        k(    5) = (   0.0000000   0.0000000  -0.5000000), wk =   0.0117188
        k(    6) = (   0.0000000   0.1250000   0.1250000), wk =   0.0468750
        k(    7) = (   0.0000000   0.1250000   0.2500000), wk =   0.0937500
        k(    8) = (   0.0000000   0.1250000   0.3750000), wk =   0.0937500
        k(    9) = (   0.0000000   0.1250000  -0.5000000), wk =   0.0468750
        k(   10) = (   0.0000000   0.2500000   0.2500000), wk =   0.0468750
        k(   11) = (   0.0000000   0.2500000   0.3750000), wk =   0.0937500
        k(   12) = (   0.0000000   0.2500000  -0.5000000), wk =   0.0468750
        k(   13) = (   0.0000000   0.3750000   0.3750000), wk =   0.0468750
        k(   14) = (   0.0000000   0.3750000  -0.5000000), wk =   0.0468750
        k(   15) = (   0.0000000  -0.5000000  -0.5000000), wk =   0.0117188
        k(   16) = (   0.1250000   0.1250000   0.1250000), wk =   0.0312500
        k(   17) = (   0.1250000   0.1250000   0.2500000), wk =   0.0937500
        k(   18) = (   0.1250000   0.1250000   0.3750000), wk =   0.0937500
        k(   19) = (   0.1250000   0.1250000  -0.5000000), wk =   0.0468750
        k(   20) = (   0.1250000   0.2500000   0.2500000), wk =   0.0937500
        k(   21) = (   0.1250000   0.2500000   0.3750000), wk =   0.1875000
        k(   22) = (   0.1250000   0.2500000  -0.5000000), wk =   0.0937500
        k(   23) = (   0.1250000   0.3750000   0.3750000), wk =   0.0937500
        k(   24) = (   0.1250000   0.3750000  -0.5000000), wk =   0.0937500
        k(   25) = (   0.1250000  -0.5000000  -0.5000000), wk =   0.0234375
        k(   26) = (   0.2500000   0.2500000   0.2500000), wk =   0.0312500
        k(   27) = (   0.2500000   0.2500000   0.3750000), wk =   0.0937500
        k(   28) = (   0.2500000   0.2500000  -0.5000000), wk =   0.0468750
        k(   29) = (   0.2500000   0.3750000   0.3750000), wk =   0.0937500
        k(   30) = (   0.2500000   0.3750000  -0.5000000), wk =   0.0937500
        k(   31) = (   0.2500000  -0.5000000  -0.5000000), wk =   0.0234375
        k(   32) = (   0.3750000   0.3750000   0.3750000), wk =   0.0312500
        k(   33) = (   0.3750000   0.3750000  -0.5000000), wk =   0.0468750
        k(   34) = (   0.3750000  -0.5000000  -0.5000000), wk =   0.0234375
        k(   35) = (  -0.5000000  -0.5000000  -0.5000000), wk =   0.0039062

     Dense  grid:    71111 G-vectors     FFT dimensions: (  54,  54,  54)

     Smooth grid:    25269 G-vectors     FFT dimensions: (  40,  40,  40)

     Estimated max dynamical RAM per process >      48.08 MB

     Estimated total dynamical RAM >     384.61 MB

     Check: negative core charge=   -0.000002

     Initial potential from superposition of free atoms

     starting charge   39.99155, renormalised to   40.00000
     Starting wfcs are   30 randomized atomic wfcs
     Checking if some PAW data can be deallocated... 

     total cpu time spent up to now is        2.3 secs

     Self-consistent Calculation

     iteration #  1     ecut=    60.00 Ry     beta= 0.30
     Davidson diagonalization with overlap
     ethr =  1.00E-02,  avg # of iterations =  1.0

     total cpu time spent up to now is        3.2 secs

     total energy              =    -561.77610670 Ry
     estimated scf accuracy    <       2.03546082 Ry

     iteration #  2     ecut=    60.00 Ry     beta= 0.30
     Davidson diagonalization with overlap
     ethr =  5.09E-03,  avg # of iterations =  2.1

     total cpu time spent up to now is        4.4 secs

     total energy              =    -562.10069522 Ry
     estimated scf accuracy    <       0.20444777 Ry

     iteration #  3     ecut=    60.00 Ry     beta= 0.30
     Davidson diagonalization with overlap
     c_bands:  4 eigenvalues not converged
     c_bands:  1 eigenvalues not converged
     ethr =  5.11E-04,  avg # of iterations = 13.0

     total cpu time spent up to now is        7.2 secs

     total energy              =    -562.34620716 Ry
     estimated scf accuracy    <       2.01239434 Ry

     iteration #  4     ecut=    60.00 Ry     beta= 0.30
     Davidson diagonalization with overlap
     ethr =  5.11E-04,  avg # of iterations =  2.2

     total cpu time spent up to now is        8.2 secs

     total energy              =    -561.49684298 Ry
     estimated scf accuracy    <       1.30580115 Ry

     iteration #  5     ecut=    60.00 Ry     beta= 0.30
     Davidson diagonalization with overlap
     ethr =  5.11E-04,  avg # of iterations =  9.6

     total cpu time spent up to now is       10.6 secs

     total energy              =    -562.53872793 Ry
     estimated scf accuracy    <       1.90034850 Ry

     iteration #  6     ecut=    60.00 Ry     beta= 0.30
     Davidson diagonalization with overlap
     ethr =  5.11E-04,  avg # of iterations =  3.4

     total cpu time spent up to now is       11.8 secs

     total energy              =    -562.40168488 Ry
     estimated scf accuracy    <       1.08387122 Ry

     iteration #  7     ecut=    60.00 Ry     beta= 0.30
     Davidson diagonalization with overlap
     ethr =  5.11E-04,  avg # of iterations =  4.8

     total cpu time spent up to now is       13.1 secs

     total energy              =    -562.44314238 Ry
     estimated scf accuracy    <       0.54644155 Ry

     iteration #  8     ecut=    60.00 Ry     beta= 0.30
     Davidson diagonalization with overlap
     ethr =  5.11E-04,  avg # of iterations =  2.0

     total cpu time spent up to now is       14.2 secs

     total energy              =    -562.35281613 Ry
     estimated scf accuracy    <       0.48154012 Ry

     iteration #  9     ecut=    60.00 Ry     beta= 0.30
     Davidson diagonalization with overlap
     ethr =  5.11E-04,  avg # of iterations =  2.1

     total cpu time spent up to now is       15.2 secs

     total energy              =    -562.25661912 Ry
     estimated scf accuracy    <       0.29376156 Ry

     iteration # 10     ecut=    60.00 Ry     beta= 0.30
     Davidson diagonalization with overlap
     ethr =  5.11E-04,  avg # of iterations =  6.8

     total cpu time spent up to now is       16.8 secs

     total energy              =    -562.36636128 Ry
     estimated scf accuracy    <       0.00638804 Ry

     iteration # 11     ecut=    60.00 Ry     beta= 0.30
     Davidson diagonalization with overlap
     ethr =  1.60E-05,  avg # of iterations = 11.7

     total cpu time spent up to now is       19.2 secs

     total energy              =    -562.36363244 Ry
     estimated scf accuracy    <       0.05060485 Ry

     iteration # 12     ecut=    60.00 Ry     beta= 0.30
     Davidson diagonalization with overlap
     ethr =  1.60E-05,  avg # of iterations = 11.2

     total cpu time spent up to now is       21.7 secs

     total energy              =    -562.38651529 Ry
     estimated scf accuracy    <       0.01972051 Ry

     iteration # 13     ecut=    60.00 Ry     beta= 0.30
     Davidson diagonalization with overlap
     ethr =  1.60E-05,  avg # of iterations =  1.3

     total cpu time spent up to now is       22.7 secs

     total energy              =    -562.37272733 Ry
     estimated scf accuracy    <       0.02134487 Ry

     iteration # 14     ecut=    60.00 Ry     beta= 0.30
     Davidson diagonalization with overlap
     ethr =  1.60E-05,  avg # of iterations = 12.8

     total cpu time spent up to now is       25.6 secs

     total energy              =    -562.59895337 Ry
     estimated scf accuracy    <       0.17019905 Ry

     iteration # 15     ecut=    60.00 Ry     beta= 0.30
     Davidson diagonalization with overlap
     c_bands:  4 eigenvalues not converged
     c_bands:  1 eigenvalues not converged
     c_bands:  4 eigenvalues not converged
     c_bands:  3 eigenvalues not converged
     c_bands:  3 eigenvalues not converged
     c_bands:  1 eigenvalues not converged
     c_bands:  4 eigenvalues not converged
     c_bands:  3 eigenvalues not converged
     c_bands:  2 eigenvalues not converged
     c_bands:  4 eigenvalues not converged
     c_bands:  3 eigenvalues not converged
     c_bands:  3 eigenvalues not converged
     c_bands:  3 eigenvalues not converged
     c_bands:  3 eigenvalues not converged
     ethr =  1.60E-05,  avg # of iterations = 22.7

     total cpu time spent up to now is       30.4 secs

     total energy              =    -561.62394796 Ry
     estimated scf accuracy    <       5.87531596 Ry

     iteration # 16     ecut=    60.00 Ry     beta= 0.30
     Davidson diagonalization with overlap
     c_bands:  5 eigenvalues not converged
     c_bands:  1 eigenvalues not converged
     c_bands:  5 eigenvalues not converged
     c_bands:  2 eigenvalues not converged
     c_bands:  1 eigenvalues not converged
     c_bands:  2 eigenvalues not converged
     c_bands:  5 eigenvalues not converged
     c_bands:  1 eigenvalues not converged
     c_bands:  1 eigenvalues not converged
     c_bands:  4 eigenvalues not converged
     c_bands:  2 eigenvalues not converged
     c_bands:  1 eigenvalues not converged
     c_bands:  3 eigenvalues not converged
     c_bands:  5 eigenvalues not converged
     c_bands:  1 eigenvalues not converged
     c_bands:  2 eigenvalues not converged
     c_bands:  5 eigenvalues not converged
     c_bands:  1 eigenvalues not converged
     ethr =  1.60E-05,  avg # of iterations = 19.6

     total cpu time spent up to now is       35.0 secs

     total energy              =    -562.38033895 Ry
     estimated scf accuracy    <       0.00707924 Ry

     iteration # 17     ecut=    60.00 Ry     beta= 0.30
     Davidson diagonalization with overlap
     ethr =  1.60E-05,  avg # of iterations =  2.6

     total cpu time spent up to now is       36.1 secs

     total energy              =    -562.38118591 Ry
     estimated scf accuracy    <       0.00841723 Ry

     iteration # 18     ecut=    60.00 Ry     beta= 0.30
     Davidson diagonalization with overlap
     ethr =  1.60E-05,  avg # of iterations =  1.1

     total cpu time spent up to now is       37.0 secs

     total energy              =    -562.38073405 Ry
     estimated scf accuracy    <       0.00731991 Ry

     iteration # 19     ecut=    60.00 Ry     beta= 0.30
     Davidson diagonalization with overlap
     ethr =  1.60E-05,  avg # of iterations =  1.0

     total cpu time spent up to now is       38.0 secs

     total energy              =    -562.38210077 Ry
     estimated scf accuracy    <       0.00626966 Ry

     iteration # 20     ecut=    60.00 Ry     beta= 0.30
     Davidson diagonalization with overlap
     ethr =  1.57E-05,  avg # of iterations =  1.1

     total cpu time spent up to now is       38.9 secs

     total energy              =    -562.38157472 Ry
     estimated scf accuracy    <       0.00888709 Ry

     iteration # 21     ecut=    60.00 Ry     beta= 0.30
     Davidson diagonalization with overlap
     ethr =  1.57E-05,  avg # of iterations =  1.0

     total cpu time spent up to now is       39.9 secs

     total energy              =    -562.37882120 Ry
     estimated scf accuracy    <       0.00803495 Ry

     iteration # 22     ecut=    60.00 Ry     beta= 0.30
     Davidson diagonalization with overlap
     ethr =  1.57E-05,  avg # of iterations =  1.1

     total cpu time spent up to now is       40.8 secs

     total energy              =    -562.38390446 Ry
     estimated scf accuracy    <       0.00372780 Ry

     iteration # 23     ecut=    60.00 Ry     beta= 0.30
     Davidson diagonalization with overlap
     ethr =  9.32E-06,  avg # of iterations =  5.2

     total cpu time spent up to now is       42.2 secs

     total energy              =    -562.39254775 Ry
     estimated scf accuracy    <       0.01720112 Ry

     iteration # 24     ecut=    60.00 Ry     beta= 0.30
     Davidson diagonalization with overlap
     ethr =  9.32E-06,  avg # of iterations =  7.6

     total cpu time spent up to now is       44.2 secs

     total energy              =    -562.34155640 Ry
     estimated scf accuracy    <       0.06728349 Ry

     iteration # 25     ecut=    60.00 Ry     beta= 0.30
     Davidson diagonalization with overlap
     c_bands:  2 eigenvalues not converged
     c_bands:  3 eigenvalues not converged
     c_bands:  4 eigenvalues not converged
     c_bands:  2 eigenvalues not converged
     c_bands:  2 eigenvalues not converged
     c_bands:  3 eigenvalues not converged
     c_bands:  3 eigenvalues not converged
     ethr =  9.32E-06,  avg # of iterations = 17.3

     total cpu time spent up to now is       48.2 secs

     total energy              =    -562.34226511 Ry
     estimated scf accuracy    <       0.38847013 Ry

     iteration # 26     ecut=    60.00 Ry     beta= 0.30
     Davidson diagonalization with overlap
     ethr =  9.32E-06,  avg # of iterations = 12.5

     total cpu time spent up to now is       51.1 secs

     total energy              =    -562.38097605 Ry
     estimated scf accuracy    <       0.01187836 Ry

     iteration # 27     ecut=    60.00 Ry     beta= 0.30
     Davidson diagonalization with overlap
     ethr =  9.32E-06,  avg # of iterations =  1.7

     total cpu time spent up to now is       52.1 secs

     total energy              =    -562.37929820 Ry
     estimated scf accuracy    <       0.01148605 Ry

     iteration # 28     ecut=    60.00 Ry     beta= 0.30
     Davidson diagonalization with overlap
     ethr =  9.32E-06,  avg # of iterations =  2.7

     total cpu time spent up to now is       53.2 secs

     total energy              =    -562.37563007 Ry
     estimated scf accuracy    <       0.00639895 Ry

     iteration # 29     ecut=    60.00 Ry     beta= 0.30
     Davidson diagonalization with overlap
     ethr =  9.32E-06,  avg # of iterations =  8.5

     total cpu time spent up to now is       55.2 secs

     total energy              =    -562.37599207 Ry
     estimated scf accuracy    <       0.01071185 Ry

     iteration # 30     ecut=    60.00 Ry     beta= 0.30
     Davidson diagonalization with overlap
     ethr =  9.32E-06,  avg # of iterations =  8.1

     total cpu time spent up to now is       57.2 secs

     total energy              =    -562.37882232 Ry
     estimated scf accuracy    <       0.00481940 Ry

     iteration # 31     ecut=    60.00 Ry     beta= 0.30
     Davidson diagonalization with overlap
     ethr =  9.32E-06,  avg # of iterations =  2.0

     total cpu time spent up to now is       58.2 secs

     total energy              =    -562.38081495 Ry
     estimated scf accuracy    <       0.00158788 Ry

     iteration # 32     ecut=    60.00 Ry     beta= 0.30
     Davidson diagonalization with overlap
     ethr =  3.97E-06,  avg # of iterations =  3.5

     total cpu time spent up to now is       59.5 secs

     total energy              =    -562.38901903 Ry
     estimated scf accuracy    <       0.00519055 Ry

     iteration # 33     ecut=    60.00 Ry     beta= 0.30
     Davidson diagonalization with overlap
     c_bands:  1 eigenvalues not converged
     ethr =  3.97E-06,  avg # of iterations = 12.5

     total cpu time spent up to now is       62.3 secs

     total energy              =    -562.37409069 Ry
     estimated scf accuracy    <       0.10798553 Ry

     iteration # 34     ecut=    60.00 Ry     beta= 0.30
     Davidson diagonalization with overlap
     ethr =  3.97E-06,  avg # of iterations = 10.7

     total cpu time spent up to now is       64.7 secs

     total energy              =    -562.38171435 Ry
     estimated scf accuracy    <       0.01425547 Ry

     iteration # 35     ecut=    60.00 Ry     beta= 0.30
     Davidson diagonalization with overlap
     ethr =  3.97E-06,  avg # of iterations =  1.5

     total cpu time spent up to now is       65.7 secs

     total energy              =    -562.38503184 Ry
     estimated scf accuracy    <       0.01479488 Ry

     iteration # 36     ecut=    60.00 Ry     beta= 0.30
     Davidson diagonalization with overlap
     ethr =  3.97E-06,  avg # of iterations =  5.7

     total cpu time spent up to now is       67.1 secs

     total energy              =    -562.38715879 Ry
     estimated scf accuracy    <       0.02622592 Ry

     iteration # 37     ecut=    60.00 Ry     beta= 0.30
     Davidson diagonalization with overlap
     ethr =  3.97E-06,  avg # of iterations =  4.7

     total cpu time spent up to now is       68.3 secs

     total energy              =    -562.38440069 Ry
     estimated scf accuracy    <       0.03574016 Ry

     iteration # 38     ecut=    60.00 Ry     beta= 0.30
     Davidson diagonalization with overlap
     ethr =  3.97E-06,  avg # of iterations =  1.1

     total cpu time spent up to now is       69.3 secs

     total energy              =    -562.37574175 Ry
     estimated scf accuracy    <       0.03102412 Ry

     iteration # 39     ecut=    60.00 Ry     beta= 0.30
     Davidson diagonalization with overlap
     ethr =  3.97E-06,  avg # of iterations =  8.5

     total cpu time spent up to now is       71.5 secs

     total energy              =    -562.38003802 Ry
     estimated scf accuracy    <       0.00250129 Ry

     iteration # 40     ecut=    60.00 Ry     beta= 0.30
     Davidson diagonalization with overlap
     ethr =  3.97E-06,  avg # of iterations =  2.0

     total cpu time spent up to now is       72.5 secs

     total energy              =    -562.38042313 Ry
     estimated scf accuracy    <       0.00325783 Ry

     iteration # 41     ecut=    60.00 Ry     beta= 0.30
     Davidson diagonalization with overlap
     ethr =  3.97E-06,  avg # of iterations =  2.3

     total cpu time spent up to now is       73.6 secs

     total energy              =    -562.37858541 Ry
     estimated scf accuracy    <       0.00441626 Ry

     iteration # 42     ecut=    60.00 Ry     beta= 0.30
     Davidson diagonalization with overlap
     ethr =  3.97E-06,  avg # of iterations =  7.2

     total cpu time spent up to now is       75.3 secs

     total energy              =    -562.37963527 Ry
     estimated scf accuracy    <       0.00002335 Ry

     iteration # 43     ecut=    60.00 Ry     beta= 0.30
     Davidson diagonalization with overlap
     c_bands:  5 eigenvalues not converged
     c_bands:  1 eigenvalues not converged
     c_bands:  1 eigenvalues not converged
     ethr =  5.84E-08,  avg # of iterations = 13.4

     total cpu time spent up to now is       78.1 secs

     total energy              =    -562.37958966 Ry
     estimated scf accuracy    <       0.00053058 Ry

     iteration # 44     ecut=    60.00 Ry     beta= 0.30
     Davidson diagonalization with overlap
     ethr =  5.84E-08,  avg # of iterations = 11.5

     total cpu time spent up to now is       80.8 secs

     total energy              =    -562.37969603 Ry
     estimated scf accuracy    <       0.00001518 Ry

     iteration # 45     ecut=    60.00 Ry     beta= 0.30
     Davidson diagonalization with overlap
     ethr =  3.80E-08,  avg # of iterations =  2.1

     total cpu time spent up to now is       81.9 secs

     total energy              =    -562.37969443 Ry
     estimated scf accuracy    <       0.00000351 Ry

     iteration # 46     ecut=    60.00 Ry     beta= 0.30
     Davidson diagonalization with overlap
     ethr =  8.77E-09,  avg # of iterations = 11.0

     total cpu time spent up to now is       84.3 secs

     total energy              =    -562.37969095 Ry
     estimated scf accuracy    <       0.00003747 Ry

     iteration # 47     ecut=    60.00 Ry     beta= 0.30
     Davidson diagonalization with overlap
     ethr =  8.77E-09,  avg # of iterations =  9.9

     total cpu time spent up to now is       86.6 secs

     total energy              =    -562.37969985 Ry
     estimated scf accuracy    <       0.00000108 Ry

     iteration # 48     ecut=    60.00 Ry     beta= 0.30
     Davidson diagonalization with overlap
     ethr =  2.69E-09,  avg # of iterations =  4.0

     total cpu time spent up to now is       87.8 secs

     total energy              =    -562.37970015 Ry
     estimated scf accuracy    <       0.00000079 Ry

     iteration # 49     ecut=    60.00 Ry     beta= 0.30
     Davidson diagonalization with overlap
     ethr =  1.99E-09,  avg # of iterations =  1.8

     total cpu time spent up to now is       88.8 secs

     total energy              =    -562.37970047 Ry
     estimated scf accuracy    <       0.00000094 Ry

     iteration # 50     ecut=    60.00 Ry     beta= 0.30
     Davidson diagonalization with overlap
     ethr =  1.99E-09,  avg # of iterations =  2.9

     total cpu time spent up to now is       90.0 secs

     total energy              =    -562.37969976 Ry
     estimated scf accuracy    <       0.00000198 Ry

     iteration # 51     ecut=    60.00 Ry     beta= 0.30
     Davidson diagonalization with overlap
     ethr =  1.99E-09,  avg # of iterations =  4.6

     total cpu time spent up to now is       91.2 secs

     total energy              =    -562.37969953 Ry
     estimated scf accuracy    <       0.00000045 Ry

     iteration # 52     ecut=    60.00 Ry     beta= 0.30
     Davidson diagonalization with overlap
     ethr =  1.13E-09,  avg # of iterations = 10.2

     total cpu time spent up to now is       93.6 secs

     total energy              =    -562.37970019 Ry
     estimated scf accuracy    <       0.00000379 Ry

     iteration # 53     ecut=    60.00 Ry     beta= 0.30
     Davidson diagonalization with overlap
     ethr =  1.13E-09,  avg # of iterations =  2.0

     total cpu time spent up to now is       94.7 secs

     total energy              =    -562.37970005 Ry
     estimated scf accuracy    <       0.00000246 Ry

     iteration # 54     ecut=    60.00 Ry     beta= 0.30
     Davidson diagonalization with overlap
     ethr =  1.13E-09,  avg # of iterations =  4.9

     total cpu time spent up to now is       96.0 secs

     total energy              =    -562.37969952 Ry
     estimated scf accuracy    <       0.00000135 Ry

     iteration # 55     ecut=    60.00 Ry     beta= 0.30
     Davidson diagonalization with overlap
     ethr =  1.13E-09,  avg # of iterations =  8.4

     total cpu time spent up to now is       98.0 secs

     total energy              =    -562.37970025 Ry
     estimated scf accuracy    <       0.00000021 Ry

     iteration # 56     ecut=    60.00 Ry     beta= 0.30
     Davidson diagonalization with overlap
     ethr =  5.34E-10,  avg # of iterations =  7.7

     total cpu time spent up to now is       99.7 secs

     total energy              =    -562.37969987 Ry
     estimated scf accuracy    <       0.00000157 Ry

     iteration # 57     ecut=    60.00 Ry     beta= 0.30
     Davidson diagonalization with overlap
     ethr =  5.34E-10,  avg # of iterations =  7.7

     total cpu time spent up to now is      101.5 secs

     total energy              =    -562.37969999 Ry
     estimated scf accuracy    <       0.00000009 Ry

     iteration # 58     ecut=    60.00 Ry     beta= 0.30
     Davidson diagonalization with overlap
     ethr =  2.21E-10,  avg # of iterations =  7.8

     total cpu time spent up to now is      103.4 secs

     total energy              =    -562.37970010 Ry
     estimated scf accuracy    <       0.00000005 Ry

     iteration # 59     ecut=    60.00 Ry     beta= 0.30
     Davidson diagonalization with overlap
     ethr =  1.29E-10,  avg # of iterations =  7.0

     total cpu time spent up to now is      105.0 secs

     total energy              =    -562.37970012 Ry
     estimated scf accuracy    <       0.00000034 Ry

     iteration # 60     ecut=    60.00 Ry     beta= 0.30
     Davidson diagonalization with overlap
     ethr =  1.29E-10,  avg # of iterations =  1.5

     total cpu time spent up to now is      105.9 secs

     total energy              =    -562.37969990 Ry
     estimated scf accuracy    <       0.00000034 Ry

     iteration # 61     ecut=    60.00 Ry     beta= 0.30
     Davidson diagonalization with overlap
     ethr =  1.29E-10,  avg # of iterations = 11.5

     total cpu time spent up to now is      108.5 secs

     total energy              =    -562.37969998 Ry
     estimated scf accuracy    <       0.00000039 Ry

     iteration # 62     ecut=    60.00 Ry     beta= 0.30
     Davidson diagonalization with overlap
     ethr =  1.29E-10,  avg # of iterations =  7.9

     total cpu time spent up to now is      110.5 secs

     total energy              =    -562.37970005 Ry
     estimated scf accuracy    <          6.5E-10 Ry

     iteration # 63     ecut=    60.00 Ry     beta= 0.30
     Davidson diagonalization with overlap
     ethr =  1.63E-12,  avg # of iterations = 12.3

     total cpu time spent up to now is      113.0 secs

     total energy              =    -562.37970005 Ry
     estimated scf accuracy    <          5.6E-09 Ry

     iteration # 64     ecut=    60.00 Ry     beta= 0.30
     Davidson diagonalization with overlap
     ethr =  1.63E-12,  avg # of iterations =  1.1

     total cpu time spent up to now is      114.0 secs

     total energy              =    -562.37970005 Ry
     estimated scf accuracy    <          4.2E-09 Ry

     iteration # 65     ecut=    60.00 Ry     beta= 0.30
     Davidson diagonalization with overlap
     ethr =  1.63E-12,  avg # of iterations =  2.2

     total cpu time spent up to now is      115.1 secs

     total energy              =    -562.37970005 Ry
     estimated scf accuracy    <          3.4E-09 Ry

     iteration # 66     ecut=    60.00 Ry     beta= 0.30
     Davidson diagonalization with overlap
     ethr =  1.63E-12,  avg # of iterations =  6.5

     total cpu time spent up to now is      116.6 secs

     total energy              =    -562.37970005 Ry
     estimated scf accuracy    <          3.1E-10 Ry

     iteration # 67     ecut=    60.00 Ry     beta= 0.30
     Davidson diagonalization with overlap
     ethr =  7.81E-13,  avg # of iterations =  7.3

     total cpu time spent up to now is      118.3 secs

     total energy              =    -562.37970005 Ry
     estimated scf accuracy    <          2.1E-09 Ry

     iteration # 68     ecut=    60.00 Ry     beta= 0.30
     Davidson diagonalization with overlap
     ethr =  7.81E-13,  avg # of iterations =  7.9

     total cpu time spent up to now is      120.1 secs

     total energy              =    -562.37970005 Ry
     estimated scf accuracy    <          1.4E-10 Ry

     iteration # 69     ecut=    60.00 Ry     beta= 0.30
     Davidson diagonalization with overlap
     ethr =  3.54E-13,  avg # of iterations =  2.2

     total cpu time spent up to now is      121.1 secs

     total energy              =    -562.37970005 Ry
     estimated scf accuracy    <          2.0E-10 Ry

     iteration # 70     ecut=    60.00 Ry     beta= 0.30
     Davidson diagonalization with overlap
     ethr =  3.54E-13,  avg # of iterations =  8.3

     total cpu time spent up to now is      123.1 secs

     total energy              =    -562.37970005 Ry
     estimated scf accuracy    <          1.9E-09 Ry

     iteration # 71     ecut=    60.00 Ry     beta= 0.30
     Davidson diagonalization with overlap
     ethr =  3.54E-13,  avg # of iterations =  7.0

     total cpu time spent up to now is      124.8 secs

     total energy              =    -562.37970005 Ry
     estimated scf accuracy    <          5.1E-10 Ry

     iteration # 72     ecut=    60.00 Ry     beta= 0.30
     Davidson diagonalization with overlap
     ethr =  3.54E-13,  avg # of iterations =  4.8

     total cpu time spent up to now is      126.1 secs

     total energy              =    -562.37970005 Ry
     estimated scf accuracy    <          1.3E-10 Ry

     iteration # 73     ecut=    60.00 Ry     beta= 0.30
     Davidson diagonalization with overlap
     ethr =  3.24E-13,  avg # of iterations =  5.7

     total cpu time spent up to now is      127.6 secs

     End of self-consistent calculation

          k = 0.0000 0.0000 0.0000 (  3119 PWs)   bands (ev):

   -46.1673 -22.6203 -22.5517 -22.5517 -22.5517  -7.4065  -6.4000  -6.4000
    -4.6439  -4.6439  -4.6439   7.1288   7.1288   7.1288   8.7696   8.7696
     8.7696   9.6235   9.6235   9.6235

          k = 0.0000 0.0000 0.1250 (  3126 PWs)   bands (ev):

   -46.1671 -22.6430 -22.5513 -22.5513 -22.5363  -7.4118  -6.4029  -6.3939
    -4.6366  -4.6366  -4.5364   6.9200   7.1161   7.1161   8.5599   8.5599
     8.6266   9.1368   9.5228   9.5228

          k = 0.0000 0.0000 0.2500 (  3118 PWs)   bands (ev):

   -46.1665 -22.6836 -22.5501 -22.5501 -22.5131  -7.4759  -6.3791  -6.3161
    -4.6190  -4.6190  -4.3107   6.3959   7.0910   7.0910   8.1151   8.1151
     8.2690   8.3142   9.3777   9.3777

          k = 0.0000 0.0000 0.3750 (  3138 PWs)   bands (ev):

   -46.1659 -22.7175 -22.5490 -22.5490 -22.4962  -7.5822  -6.3642  -6.1397
    -4.6012  -4.6012  -4.1184   5.8378   7.0831   7.0831   7.6462   7.7255
     7.7255   8.0378   9.2779   9.2779

          k = 0.0000 0.0000-0.5000 (  3178 PWs)   bands (ev):

   -46.1658 -22.7307 -22.5486 -22.5486 -22.4900  -7.6315  -6.3580  -6.0490
    -4.5938  -4.5938  -4.0464   5.5975   7.0931   7.0931   7.4338   7.5659
     7.5659   7.9313   9.2426   9.2426

          k = 0.0000 0.1250 0.1250 (  3127 PWs)   bands (ev):

   -46.1668 -22.6529 -22.5623 -22.5508 -22.5223  -7.3991  -6.4213  -6.3826
    -4.6291  -4.5811  -4.4928   6.7758   7.0379   7.1043   8.1234   8.3914
     8.7773   8.9686   9.2532   9.3883

          k = 0.0000 0.1250 0.2500 (  3127 PWs)   bands (ev):

   -46.1663 -22.6802 -22.5659 -22.5497 -22.5081  -7.4222  -6.3990  -6.3305
    -4.6109  -4.5501  -4.3137   6.3315   6.9126   7.0810   7.5391   8.0036
     8.3165   8.7555   9.0806   9.1956

          k = 0.0000 0.1250 0.3750 (  3138 PWs)   bands (ev):

   -46.1657 -22.7086 -22.5621 -22.5486 -22.4998  -7.5004  -6.3524  -6.2060
    -4.5926  -4.5340  -4.1474   5.8184   6.7530   7.0759   7.0983   7.6406
     7.9294   8.6322   8.9502   9.0732

          k = 0.0000 0.1250-0.5000 (  3156 PWs)   bands (ev):

   -46.1655 -22.7204 -22.5597 -22.5481 -22.4972  -7.5416  -6.3371  -6.1313
    -4.5849  -4.5269  -4.0848   5.5879   6.6517   6.9785   7.0893   7.4857
     7.8100   8.5744   8.9008   9.0320

          k = 0.0000 0.2500 0.2500 (  3129 PWs)   bands (ev):

   -46.1657 -22.6769 -22.5880 -22.5486 -22.5069  -7.3238  -6.4666  -6.2854
    -4.5913  -4.4321  -4.2929   6.0889   6.5950   6.8663   7.0605   7.7272
     8.2270   8.5832   8.9007   9.2140

          k = 0.0000 0.2500 0.3750 (  3143 PWs)   bands (ev):

   -46.1652 -22.6851 -22.5909 -22.5475 -22.5132  -7.2918  -6.4200  -6.2591
    -4.5716  -4.3938  -4.2071   5.7383   6.1318   6.5485   7.0573   7.4375
     8.0821   8.5081   8.7083   9.3036

          k = 0.0000 0.2500-0.5000 (  3134 PWs)   bands (ev):

   -46.1649 -22.6918 -22.5865 -22.5470 -22.5181  -7.2997  -6.3151  -6.3068
    -4.5633  -4.3869  -4.1636   5.5613   5.8990   6.5088   7.0770   7.2990
     8.0482   8.4798   8.6456   9.3094

          k = 0.0000 0.3750 0.3750 (  3157 PWs)   bands (ev):

   -46.1646 -22.6592 -22.6134 -22.5464 -22.5351  -7.0673  -6.5051  -6.2949
    -4.5504  -4.2832  -4.2354   5.5037   5.7682   5.9975   7.0443   7.2284
     8.2013   8.4117   8.4447   9.6466

          k = 0.0000 0.3750-0.5000 (  3138 PWs)   bands (ev):

   -46.1644 -22.6524 -22.6130 -22.5498 -22.5460  -6.9796  -6.4605  -6.3837
    -4.5415  -4.2666  -4.2127   5.4006   5.4914   5.9200   7.0592   7.1211
     8.2800   8.3549   8.3770   9.7427

          k = 0.0000-0.5000-0.5000 (  3168 PWs)   bands (ev):

   -46.1642 -22.6240 -22.6240 -22.5751 -22.5456  -6.7460  -6.5196  -6.5196
    -4.5325  -4.2207  -4.2207   5.2265   5.3836   5.7399   7.0496   7.0496
     8.2527   8.3756   8.3756   9.8738

          k = 0.1250 0.1250 0.1250 (  3131 PWs)   bands (ev):

   -46.1666 -22.6578 -22.5619 -22.5619 -22.5135  -7.3737  -6.4059  -6.4059
    -4.5895  -4.5895  -4.4377   6.6275   7.0305   7.0305   8.0201   8.0201
     8.6813   8.9280   9.2047   9.2047

          k = 0.1250 0.1250 0.2500 (  3133 PWs)   bands (ev):

   -46.1660 -22.6763 -22.5687 -22.5607 -22.5052  -7.3647  -6.3791  -6.3677
    -4.6107  -4.5207  -4.2999   6.2514   6.8280   7.0119   7.5302   7.5371
     8.3355   8.9063   8.9490   9.0822

          k = 0.1250 0.1250 0.3750 (  3132 PWs)   bands (ev):

   -46.1655 -22.7002 -22.5635 -22.5596 -22.5032  -7.4181  -6.3279  -6.2542
    -4.6336  -4.4607  -4.1756   5.7987   6.5961   6.9891   7.0345   7.1977
     8.3277   8.6989   8.7512   8.9806

          k = 0.1250 0.1250-0.5000 (  3150 PWs)   bands (ev):

   -46.1653 -22.7107 -22.5594 -22.5591 -22.5036  -7.4516  -6.3110  -6.1818
    -4.6437  -4.4357  -4.1291   5.5803   6.4991   6.8715   6.9704   7.0918
     8.4397   8.5070   8.6709   8.9447

          k = 0.1250 0.2500 0.2500 (  3133 PWs)   bands (ev):

   -46.1655 -22.6713 -22.5874 -22.5621 -22.5067  -7.2545  -6.4324  -6.3072
    -4.6081  -4.4744  -4.2561   6.0200   6.5966   6.8977   6.9216   7.4007
     7.9295   8.8582   8.8739   9.2152

          k = 0.1250 0.2500 0.3750 (  3142 PWs)   bands (ev):

   -46.1649 -22.6779 -22.5905 -22.5600 -22.5157  -7.2078  -6.3850  -6.2586
    -4.6379  -4.3949  -4.2250   5.7256   6.1541   6.5571   6.8689   7.1077
     7.9369   8.6674   8.8025   9.3088

          k = 0.1250 0.2500-0.5000 (  3136 PWs)   bands (ev):

   -46.1647 -22.6842 -22.5860 -22.5581 -22.5224  -7.2098  -6.3018  -6.2744
    -4.6558  -4.3466  -4.2236   5.5587   5.9423   6.4984   6.8728   6.9702
     8.0033   8.5641   8.7723   9.3154

          k = 0.1250 0.3750 0.3750 (  3159 PWs)   bands (ev):

   -46.1644 -22.6537 -22.6129 -22.5587 -22.5361  -6.9802  -6.4562  -6.2612
    -4.6232  -4.3557  -4.2554   5.5537   5.8163   6.0010   6.8216   6.9752
     7.8209   8.6440   8.7294   9.6536

          k = 0.1250 0.3750-0.5000 (  3150 PWs)   bands (ev):

   -46.1641 -22.6482 -22.6125 -22.5570 -22.5507  -6.8895  -6.4183  -6.3271
    -4.6190  -4.3091  -4.2898   5.4960   5.5153   5.9250   6.8479   6.8670
     7.8198   8.6488   8.7001   9.7520

          k = 0.1250-0.5000-0.5000 (  3148 PWs)   bands (ev):

   -46.1639 -22.6234 -22.6234 -22.5723 -22.5566  -6.6468  -6.4654  -6.4654
    -4.5935  -4.3048  -4.3048   5.3659   5.3906   5.7427   6.8313   6.8313
     7.7731   8.6943   8.6943   9.8868

          k = 0.2500 0.2500 0.2500 (  3133 PWs)   bands (ev):

   -46.1649 -22.6597 -22.5862 -22.5862 -22.5125  -7.1023  -6.3429  -6.3429
    -4.5838  -4.5838  -4.2258   5.8682   6.5959   6.5959   6.9587   6.9587
     7.1396   9.0223   9.0223   9.3316

          k = 0.2500 0.2500 0.3750 (  3160 PWs)   bands (ev):

   -46.1644 -22.6590 -22.5919 -22.5849 -22.5255  -6.9942  -6.3276  -6.2405
    -4.7065  -4.4841  -4.2640   5.6924   6.1366   6.5320   6.5514   6.7114
     7.1554   9.0075   9.1216   9.4214

          k = 0.2500 0.2500-0.5000 (  3140 PWs)   bands (ev):

   -46.1641 -22.6639 -22.5851 -22.5844 -22.5348  -6.9697  -6.2979  -6.1929
    -4.7625  -4.3636  -4.3574   5.5497   5.9528   6.4132   6.4893   6.6750
     7.2063   8.9983   9.1416   9.4277

          k = 0.2500 0.3750 0.3750 (  3143 PWs)   bands (ev):

   -46.1638 -22.6393 -22.6115 -22.5857 -22.5418  -6.7587  -6.3225  -6.1893
    -4.7409  -4.5456  -4.3514   5.6212   5.9801   6.0104   6.4590   6.5977
     6.8665   9.1522   9.2387   9.6834

          k = 0.2500 0.3750-0.5000 (  3150 PWs)   bands (ev):

   -46.1636 -22.6376 -22.6111 -22.5835 -22.5531  -6.6550  -6.3074  -6.1860
    -4.7743  -4.4861  -4.4492   5.5019   5.7878   5.9376   6.4635   6.5209
     6.8635   9.2006   9.2599   9.7799

          k = 0.2500-0.5000-0.5000 (  3136 PWs)   bands (ev):

   -46.1633 -22.6220 -22.6220 -22.5830 -22.5654  -6.3969  -6.3156  -6.3156
    -4.7359  -4.5260  -4.5260   5.3990   5.7019   5.7491   6.4929   6.4929
     6.7901   9.2808   9.2808   9.9184

          k = 0.3750 0.3750 0.3750 (  3139 PWs)   bands (ev):

   -46.1632 -22.6239 -22.6101 -22.6101 -22.5510  -6.5039  -6.1548  -6.1548
    -4.7691  -4.7691  -4.5131   5.6032   6.0220   6.0220   6.1081   6.3390
     6.3390   9.5503   9.5503   9.7701

          k = 0.3750 0.3750-0.5000 (  3154 PWs)   bands (ev):

   -46.1630 -22.6259 -22.6099 -22.6096 -22.5566  -6.3629  -6.1797  -6.0677
    -4.8791  -4.6989  -4.6517   5.4606   5.9109   6.0230   6.0289   6.2480
     6.3640   9.6142   9.6935   9.8459

          k = 0.3750-0.5000-0.5000 (  3136 PWs)   bands (ev):

   -46.1628 -22.6206 -22.6206 -22.6092 -22.5586  -6.1300  -6.1205  -6.1205
    -4.8720  -4.7911  -4.7911   5.3561   5.7556   5.9921   6.0389   6.2596
     6.2596   9.7727   9.7727   9.9506

          k =-0.5000-0.5000-0.5000 (  3112 PWs)   bands (ev):

   -46.1625 -22.6200 -22.6200 -22.6200 -22.5557  -6.0135  -6.0135  -6.0135
    -4.9267  -4.9267  -4.9267   5.2650   5.7584   5.7584   6.1793   6.1793
     6.1793   9.9641   9.9641   9.9641

     highest occupied level (ev):     9.9641

!    total energy              =    -562.37970005 Ry

     total all-electron energy =     -8511.839920 Ry
     estimated scf accuracy    <          3.0E-12 Ry

     The total energy is the sum of the following terms:
     one-electron contribution =     -72.08871014 Ry
     hartree contribution      =      60.41775589 Ry
     xc contribution           =     -58.91460856 Ry
     ewald contribution        =    -212.77727320 Ry
     one-center paw contrib.   =    -279.01686404 Ry

     convergence has been achieved in  73 iterations

     Forces acting on atoms (cartesian axes, Ry/au):

     atom    1 type  1   force =     0.00000000    0.00000000    0.00000000
     atom    2 type  2   force =     0.00000000    0.00000000    0.00000000
     atom    3 type  3   force =     0.00000000    0.00000000    0.00000000
     atom    4 type  3   force =     0.00000000    0.00000000    0.00000000
     atom    5 type  3   force =     0.00000000    0.00000000    0.00000000

     Total force =     0.000000     Total SCF correction =     0.000000


     Computing stress (Cartesian axis) and pressure

          total   stress  (Ry/bohr**3)                   (kbar)     P=       -9.97
  -0.00006776   0.00000000   0.00000000           -9.97        0.00        0.00
   0.00000000  -0.00006776   0.00000000            0.00       -9.97        0.00
   0.00000000   0.00000000  -0.00006776            0.00        0.00       -9.97


     BFGS Geometry Optimization
     Energy error            =      0.0E+00
     Gradient error          =      0.0E+00
     Cell gradient error     =      6.8E-05


     number of scf cycles    =   1
     number of bfgs steps    =   0

     enthalpy new            =    -562.3797000521 Ry

     new trust radius        =       0.0067784080 bohr
     new conv_thr            =            1.0E-10 Ry

     new unit-cell volume =    398.28467 a.u.^3 (    59.01970 Ang^3 )
     density =      5.16238 g/cm^3

CELL_PARAMETERS (alat=  7.37000000)
   0.998306066   0.000000000   0.000000000
   0.000000000   0.998306066   0.000000000
   0.000000000   0.000000000   0.998306066

ATOMIC_POSITIONS (crystal)
Sr            0.0000000000        0.0000000000        0.0000000000
Ti            0.5000000000        0.5000000000        0.5000000000
O             0.5000000000        0.5000000000        0.0000000000
O             0.5000000000        0.0000000000        0.5000000000
O             0.0000000000        0.5000000000        0.5000000000



     Writing output data file ./tmp/SrTiO3_pbesol.save/
     NEW-OLD atomic charge density approx. for the potential

     Check: negative core charge=   -0.000002
     extrapolated charge   39.79608, renormalised to   40.00000

     total cpu time spent up to now is      132.1 secs

     Self-consistent Calculation

     iteration #  1     ecut=    60.00 Ry     beta= 0.30
     Davidson diagonalization with overlap
     ethr =  1.00E-06,  avg # of iterations = 11.3

     total cpu time spent up to now is      134.8 secs

     total energy              =    -562.37621817 Ry
     estimated scf accuracy    <       0.00361665 Ry

     iteration #  2     ecut=    60.00 Ry     beta= 0.30
     Davidson diagonalization with overlap
     ethr =  9.04E-06,  avg # of iterations =  6.5

     total cpu time spent up to now is      136.8 secs

     total energy              =    -562.37986255 Ry
     estimated scf accuracy    <       0.00071808 Ry

     iteration #  3     ecut=    60.00 Ry     beta= 0.30
     Davidson diagonalization with overlap
     ethr =  1.80E-06,  avg # of iterations =  5.8

     total cpu time spent up to now is      138.2 secs

     total energy              =    -562.37992200 Ry
     estimated scf accuracy    <       0.00078278 Ry

     iteration #  4     ecut=    60.00 Ry     beta= 0.30
     Davidson diagonalization with overlap
     ethr =  1.80E-06,  avg # of iterations =  1.3

     total cpu time spent up to now is      139.1 secs

     total energy              =    -562.37972857 Ry
     estimated scf accuracy    <       0.00056092 Ry

     iteration #  5     ecut=    60.00 Ry     beta= 0.30
     Davidson diagonalization with overlap
     ethr =  1.40E-06,  avg # of iterations =  2.1

     total cpu time spent up to now is      140.2 secs

     total energy              =    -562.37976505 Ry
     estimated scf accuracy    <       0.00020413 Ry

     iteration #  6     ecut=    60.00 Ry     beta= 0.30
     Davidson diagonalization with overlap
     ethr =  5.10E-07,  avg # of iterations =  4.3

     total cpu time spent up to now is      141.3 secs

     total energy              =    -562.37982694 Ry
     estimated scf accuracy    <       0.00015516 Ry

     iteration #  7     ecut=    60.00 Ry     beta= 0.30
     Davidson diagonalization with overlap
     ethr =  3.88E-07,  avg # of iterations =  2.5

     total cpu time spent up to now is      142.4 secs

     total energy              =    -562.37980816 Ry
     estimated scf accuracy    <       0.00021344 Ry

     iteration #  8     ecut=    60.00 Ry     beta= 0.30
     Davidson diagonalization with overlap
     ethr =  3.88E-07,  avg # of iterations =  2.0

     total cpu time spent up to now is      143.4 secs

     total energy              =    -562.37987101 Ry
     estimated scf accuracy    <       0.00016315 Ry

     iteration #  9     ecut=    60.00 Ry     beta= 0.30
     Davidson diagonalization with overlap
     ethr =  3.88E-07,  avg # of iterations = 12.4

     total cpu time spent up to now is      146.2 secs

     total energy              =    -562.38168934 Ry
     estimated scf accuracy    <       0.00632993 Ry

     iteration # 10     ecut=    60.00 Ry     beta= 0.30
     Davidson diagonalization with overlap
     ethr =  3.88E-07,  avg # of iterations =  6.8

     total cpu time spent up to now is      147.8 secs

     total energy              =    -562.37895496 Ry
     estimated scf accuracy    <       0.00980891 Ry

     iteration # 11     ecut=    60.00 Ry     beta= 0.30
     Davidson diagonalization with overlap
     ethr =  3.88E-07,  avg # of iterations = 12.0

     total cpu time spent up to now is      150.4 secs

     total energy              =    -562.37944688 Ry
     estimated scf accuracy    <       0.00070448 Ry

     iteration # 12     ecut=    60.00 Ry     beta= 0.30
     Davidson diagonalization with overlap
     ethr =  3.88E-07,  avg # of iterations = 11.1

     total cpu time spent up to now is      153.0 secs

     total energy              =    -562.37976710 Ry
     estimated scf accuracy    <       0.00170323 Ry

     iteration # 13     ecut=    60.00 Ry     beta= 0.30
     Davidson diagonalization with overlap
     ethr =  3.88E-07,  avg # of iterations =  6.4

     total cpu time spent up to now is      154.6 secs

     total energy              =    -562.38016645 Ry
     estimated scf accuracy    <       0.00055350 Ry

     iteration # 14     ecut=    60.00 Ry     beta= 0.30
     Davidson diagonalization with overlap
     ethr =  3.88E-07,  avg # of iterations =  7.1

     total cpu time spent up to now is      156.2 secs

     total energy              =    -562.37873514 Ry
     estimated scf accuracy    <       0.00178556 Ry

     iteration # 15     ecut=    60.00 Ry     beta= 0.30
     Davidson diagonalization with overlap
     c_bands:  1 eigenvalues not converged
     c_bands:  3 eigenvalues not converged
     ethr =  3.88E-07,  avg # of iterations = 15.5

     total cpu time spent up to now is      159.7 secs

     total energy              =    -562.38066067 Ry
     estimated scf accuracy    <       0.00796750 Ry

     iteration # 16     ecut=    60.00 Ry     beta= 0.30
     Davidson diagonalization with overlap
     ethr =  3.88E-07,  avg # of iterations =  5.0

     total cpu time spent up to now is      161.0 secs

     total energy              =    -562.38020139 Ry
     estimated scf accuracy    <       0.00597220 Ry

     iteration # 17     ecut=    60.00 Ry     beta= 0.30
     Davidson diagonalization with overlap
     ethr =  3.88E-07,  avg # of iterations =  6.5

     total cpu time spent up to now is      162.5 secs

     total energy              =    -562.38011940 Ry
     estimated scf accuracy    <       0.00363045 Ry

     iteration # 18     ecut=    60.00 Ry     beta= 0.30
     Davidson diagonalization with overlap
     ethr =  3.88E-07,  avg # of iterations =  5.2

     total cpu time spent up to now is      163.8 secs

     total energy              =    -562.38070010 Ry
     estimated scf accuracy    <       0.00265483 Ry

     iteration # 19     ecut=    60.00 Ry     beta= 0.30
     Davidson diagonalization with overlap
     ethr =  3.88E-07,  avg # of iterations =  5.3

     total cpu time spent up to now is      165.1 secs

     total energy              =    -562.38120146 Ry
     estimated scf accuracy    <       0.00409586 Ry

     iteration # 20     ecut=    60.00 Ry     beta= 0.30
     Davidson diagonalization with overlap
     ethr =  3.88E-07,  avg # of iterations =  6.8

     total cpu time spent up to now is      166.7 secs

     total energy              =    -562.37815509 Ry
     estimated scf accuracy    <       0.00722906 Ry

     iteration # 21     ecut=    60.00 Ry     beta= 0.30
     Davidson diagonalization with overlap
     ethr =  3.88E-07,  avg # of iterations = 13.7

     total cpu time spent up to now is      169.8 secs

     total energy              =    -562.37976248 Ry
     estimated scf accuracy    <       0.00034546 Ry

     iteration # 22     ecut=    60.00 Ry     beta= 0.30
     Davidson diagonalization with overlap
     ethr =  3.88E-07,  avg # of iterations =  1.2

     total cpu time spent up to now is      170.8 secs

     total energy              =    -562.37983618 Ry
     estimated scf accuracy    <       0.00019608 Ry

     iteration # 23     ecut=    60.00 Ry     beta= 0.30
     Davidson diagonalization with overlap
     ethr =  3.88E-07,  avg # of iterations =  1.4

     total cpu time spent up to now is      171.7 secs

     total energy              =    -562.37977166 Ry
     estimated scf accuracy    <       0.00031212 Ry

     iteration # 24     ecut=    60.00 Ry     beta= 0.30
     Davidson diagonalization with overlap
     ethr =  3.88E-07,  avg # of iterations =  1.1

     total cpu time spent up to now is      172.7 secs

     total energy              =    -562.37979710 Ry
     estimated scf accuracy    <       0.00020403 Ry

     iteration # 25     ecut=    60.00 Ry     beta= 0.30
     Davidson diagonalization with overlap
     ethr =  3.88E-07,  avg # of iterations =  1.0

     total cpu time spent up to now is      173.6 secs

     total energy              =    -562.37978210 Ry
     estimated scf accuracy    <       0.00023229 Ry

     iteration # 26     ecut=    60.00 Ry     beta= 0.30
     Davidson diagonalization with overlap
     ethr =  3.88E-07,  avg # of iterations =  1.1

     total cpu time spent up to now is      174.5 secs

     total energy              =    -562.37975383 Ry
     estimated scf accuracy    <       0.00019424 Ry

     iteration # 27     ecut=    60.00 Ry     beta= 0.30
     Davidson diagonalization with overlap
     ethr =  3.88E-07,  avg # of iterations =  1.6

     total cpu time spent up to now is      175.5 secs

     total energy              =    -562.37975720 Ry
     estimated scf accuracy    <       0.00011980 Ry

     iteration # 28     ecut=    60.00 Ry     beta= 0.30
     Davidson diagonalization with overlap
     ethr =  3.00E-07,  avg # of iterations =  2.1

     total cpu time spent up to now is      176.5 secs

     total energy              =    -562.37979930 Ry
     estimated scf accuracy    <       0.00009531 Ry

     iteration # 29     ecut=    60.00 Ry     beta= 0.30
     Davidson diagonalization with overlap
     ethr =  2.38E-07,  avg # of iterations =  1.0

     total cpu time spent up to now is      177.5 secs

     total energy              =    -562.37969170 Ry
     estimated scf accuracy    <       0.00015145 Ry

     iteration # 30     ecut=    60.00 Ry     beta= 0.30
     Davidson diagonalization with overlap
     ethr =  2.38E-07,  avg # of iterations =  8.5

     total cpu time spent up to now is      179.5 secs

     total energy              =    -562.37971168 Ry
     estimated scf accuracy    <       0.00018870 Ry

     iteration # 31     ecut=    60.00 Ry     beta= 0.30
     Davidson diagonalization with overlap
     ethr =  2.38E-07,  avg # of iterations =  7.4

     total cpu time spent up to now is      181.3 secs

     total energy              =    -562.37978530 Ry
     estimated scf accuracy    <       0.00002589 Ry

     iteration # 32     ecut=    60.00 Ry     beta= 0.30
     Davidson diagonalization with overlap
     ethr =  6.47E-08,  avg # of iterations =  5.3

     total cpu time spent up to now is      182.6 secs

     total energy              =    -562.37978046 Ry
     estimated scf accuracy    <       0.00008721 Ry

     iteration # 33     ecut=    60.00 Ry     beta= 0.30
     Davidson diagonalization with overlap
     ethr =  6.47E-08,  avg # of iterations =  1.0

     total cpu time spent up to now is      183.6 secs

     total energy              =    -562.37976802 Ry
     estimated scf accuracy    <       0.00006238 Ry

     iteration # 34     ecut=    60.00 Ry     beta= 0.30
     Davidson diagonalization with overlap
     ethr =  6.47E-08,  avg # of iterations =  3.1

     total cpu time spent up to now is      184.7 secs

     total energy              =    -562.37976771 Ry
     estimated scf accuracy    <       0.00002677 Ry

     iteration # 35     ecut=    60.00 Ry     beta= 0.30
     Davidson diagonalization with overlap
     ethr =  6.47E-08,  avg # of iterations =  2.5

     total cpu time spent up to now is      185.7 secs

     total energy              =    -562.37976782 Ry
     estimated scf accuracy    <       0.00001475 Ry

     iteration # 36     ecut=    60.00 Ry     beta= 0.30
     Davidson diagonalization with overlap
     ethr =  3.69E-08,  avg # of iterations =  4.3

     total cpu time spent up to now is      186.9 secs

     total energy              =    -562.37977075 Ry
     estimated scf accuracy    <       0.00000418 Ry

     iteration # 37     ecut=    60.00 Ry     beta= 0.30
     Davidson diagonalization with overlap
     ethr =  1.04E-08,  avg # of iterations =  6.4

     total cpu time spent up to now is      188.4 secs

     total energy              =    -562.37977280 Ry
     estimated scf accuracy    <       0.00000027 Ry

     iteration # 38     ecut=    60.00 Ry     beta= 0.30
     Davidson diagonalization with overlap
     ethr =  6.87E-10,  avg # of iterations =  8.1

     total cpu time spent up to now is      190.1 secs

     total energy              =    -562.37977313 Ry
     estimated scf accuracy    <       0.00000002 Ry

     iteration # 39     ecut=    60.00 Ry     beta= 0.30
     Davidson diagonalization with overlap
     c_bands:  5 eigenvalues not converged
     ethr =  4.77E-11,  avg # of iterations = 15.1

     total cpu time spent up to now is      193.6 secs

     total energy              =    -562.37977354 Ry
     estimated scf accuracy    <       0.00000175 Ry

     iteration # 40     ecut=    60.00 Ry     beta= 0.30
     Davidson diagonalization with overlap
     ethr =  4.77E-11,  avg # of iterations =  5.1

     total cpu time spent up to now is      194.9 secs

     total energy              =    -562.37977307 Ry
     estimated scf accuracy    <       0.00000210 Ry

     iteration # 41     ecut=    60.00 Ry     beta= 0.30
     Davidson diagonalization with overlap
     ethr =  4.77E-11,  avg # of iterations = 11.4

     total cpu time spent up to now is      197.5 secs

     total energy              =    -562.37977347 Ry
     estimated scf accuracy    <       0.00000045 Ry

     iteration # 42     ecut=    60.00 Ry     beta= 0.30
     Davidson diagonalization with overlap
     ethr =  4.77E-11,  avg # of iterations = 12.3

     total cpu time spent up to now is      200.4 secs

     total energy              =    -562.37977308 Ry
     estimated scf accuracy    <       0.00000246 Ry

     iteration # 43     ecut=    60.00 Ry     beta= 0.30
     Davidson diagonalization with overlap
     ethr =  4.77E-11,  avg # of iterations = 11.8

     total cpu time spent up to now is      203.1 secs

     total energy              =    -562.37977291 Ry
     estimated scf accuracy    <       0.00000057 Ry

     iteration # 44     ecut=    60.00 Ry     beta= 0.30
     Davidson diagonalization with overlap
     ethr =  4.77E-11,  avg # of iterations = 13.4

     total cpu time spent up to now is      206.2 secs

     total energy              =    -562.37977306 Ry
     estimated scf accuracy    <       0.00000015 Ry

     iteration # 45     ecut=    60.00 Ry     beta= 0.30
     Davidson diagonalization with overlap
     ethr =  4.77E-11,  avg # of iterations =  7.8

     total cpu time spent up to now is      208.2 secs

     total energy              =    -562.37977309 Ry
     estimated scf accuracy    <          8.5E-10 Ry

     iteration # 46     ecut=    60.00 Ry     beta= 0.30
     Davidson diagonalization with overlap
     ethr =  2.12E-12,  avg # of iterations = 11.2

     total cpu time spent up to now is      210.8 secs

     total energy              =    -562.37977308 Ry
     estimated scf accuracy    <       0.00000002 Ry

     iteration # 47     ecut=    60.00 Ry     beta= 0.30
     Davidson diagonalization with overlap
     c_bands:  3 eigenvalues not converged
     c_bands:  1 eigenvalues not converged
     c_bands:  2 eigenvalues not converged
     c_bands:  1 eigenvalues not converged
     c_bands:  2 eigenvalues not converged
     c_bands:  1 eigenvalues not converged
     ethr =  2.12E-12,  avg # of iterations = 17.4

     total cpu time spent up to now is      214.9 secs

     total energy              =    -562.37977308 Ry
     estimated scf accuracy    <       0.00000012 Ry

     iteration # 48     ecut=    60.00 Ry     beta= 0.30
     Davidson diagonalization with overlap
     c_bands:  1 eigenvalues not converged
     c_bands:  2 eigenvalues not converged
     c_bands:  1 eigenvalues not converged
     ethr =  2.12E-12,  avg # of iterations = 15.3

     total cpu time spent up to now is      218.5 secs

     End of self-consistent calculation

          k = 0.0000 0.0000 0.0000 (  3119 PWs)   bands (ev):

   -46.0732 -22.5327 -22.4617 -22.4617 -22.4617  -7.3526  -6.3421  -6.3421
    -4.5582  -4.5582  -4.5582   7.1979   7.1979   7.1979   8.8331   8.8331
     8.8331   9.6992   9.6992   9.6992

          k = 0.0000 0.0000 0.1252 (  3126 PWs)   bands (ev):

   -46.0730 -22.5556 -22.4612 -22.4612 -22.4462  -7.3581  -6.3443  -6.3359
    -4.5508  -4.5508  -4.4497   6.9876   7.1844   7.1844   8.6221   8.6221
     8.6887   9.2097   9.5979   9.5979

          k = 0.0000 0.0000 0.2504 (  3118 PWs)   bands (ev):

   -46.0724 -22.5970 -22.4600 -22.4600 -22.4226  -7.4236  -6.3209  -6.2544
    -4.5328  -4.5328  -4.2216   6.4596   7.1572   7.1572   8.1754   8.1754
     8.3366   8.3736   9.4518   9.4518

          k = 0.0000 0.0000 0.3756 (  3138 PWs)   bands (ev):

   -46.0719 -22.6316 -22.4589 -22.4589 -22.4054  -7.5316  -6.3058  -6.0740
    -4.5147  -4.5147  -4.0270   5.8965   7.1469   7.1469   7.7100   7.7850
     7.7850   8.0948   9.3515   9.3515

          k = 0.0000 0.0000-0.5008 (  3178 PWs)   bands (ev):

   -46.0717 -22.6451 -22.4584 -22.4584 -22.3991  -7.5817  -6.2995  -5.9815
    -4.5071  -4.5071  -3.9540   5.6538   7.1555   7.1555   7.4963   7.6254
     7.6254   7.9875   9.3160   9.3160

          k = 0.0000 0.1252 0.1252 (  3127 PWs)   bands (ev):

   -46.0728 -22.5657 -22.4726 -22.4607 -22.4318  -7.3453  -6.3625  -6.3241
    -4.5432  -4.4952  -4.4053   6.8414   7.1063   7.1718   8.1835   8.4523
     8.8410   9.0406   9.3256   9.4629

          k = 0.0000 0.1252 0.2504 (  3127 PWs)   bands (ev):

   -46.0722 -22.5935 -22.4763 -22.4596 -22.4174  -7.3693  -6.3393  -6.2701
    -4.5246  -4.4637  -4.2245   6.3939   6.9778   7.1464   7.5985   8.0626
     8.3819   8.8199   9.1517   9.2693

          k = 0.0000 0.1252 0.3756 (  3138 PWs)   bands (ev):

   -46.0716 -22.6225 -22.4723 -22.4584 -22.4091  -7.4490  -6.2933  -6.1410
    -4.5059  -4.4471  -4.0564   5.8768   6.8115   7.1387   7.1601   7.6989
     7.9914   8.6957   9.0206   9.1464

          k = 0.0000 0.1252-0.5008 (  3156 PWs)   bands (ev):

   -46.0714 -22.6345 -22.4699 -22.4580 -22.4065  -7.4909  -6.2780  -6.0645
    -4.4981  -4.4398  -3.9931   5.6442   6.7068   7.0421   7.1506   7.5441
     7.8709   8.6378   8.9708   9.1050

          k = 0.0000 0.2504 0.2504 (  3129 PWs)   bands (ev):

   -46.0716 -22.5902 -22.4988 -22.4585 -22.4163  -7.2700  -6.4058  -6.2247
    -4.5046  -4.3451  -4.2032   6.1476   6.6584   6.9251   7.1236   7.7840
     8.2912   8.6496   8.9742   9.2821

          k = 0.0000 0.2504 0.3756 (  3143 PWs)   bands (ev):

   -46.0710 -22.5984 -22.5019 -22.4573 -22.4228  -7.2383  -6.3580  -6.1969
    -4.4844  -4.3060  -4.1169   5.7952   6.1856   6.6108   7.1174   7.4932
     8.1454   8.5744   8.7818   9.3717

          k = 0.0000 0.2504-0.5008 (  3134 PWs)   bands (ev):

   -46.0708 -22.6053 -22.4973 -22.4569 -22.4278  -7.2465  -6.2545  -6.2416
    -4.4760  -4.2988  -4.0732   5.6179   5.9492   6.5715   7.1353   7.3550
     8.1116   8.5458   8.7191   9.3774

          k = 0.0000 0.3756 0.3756 (  3157 PWs)   bands (ev):

   -46.0705 -22.5719 -22.5250 -22.4563 -22.4452  -7.0120  -6.4427  -6.2324
    -4.4627  -4.1946  -4.1457   5.5545   5.8261   6.0539   7.1010   7.2822
     8.2659   8.4786   8.5195   9.7167

          k = 0.0000 0.3756-0.5008 (  3138 PWs)   bands (ev):

   -46.0702 -22.5650 -22.5245 -22.4603 -22.4558  -6.9238  -6.3968  -6.3219
    -4.4537  -4.1775  -4.1231   5.4476   5.5496   5.9762   7.1137   7.1748
     8.3462   8.4303   8.4435   9.8133

          k = 0.0000-0.5008-0.5008 (  3168 PWs)   bands (ev):

   -46.0700 -22.5357 -22.5357 -22.4863 -22.4554  -6.6900  -6.4565  -6.4565
    -4.4444  -4.1313  -4.1313   5.2724   5.4422   5.7933   7.1024   7.1024
     8.3293   8.4429   8.4429   9.9452

          k = 0.1252 0.1252 0.1252 (  3131 PWs)   bands (ev):

   -46.0725 -22.5707 -22.4721 -22.4721 -22.4228  -7.3197  -6.3470  -6.3470
    -4.5036  -4.5036  -4.3492   6.6908   7.0982   7.0982   8.0793   8.0793
     8.7542   8.9926   9.2764   9.2764

          k = 0.1252 0.1252 0.2504 (  3133 PWs)   bands (ev):

   -46.0720 -22.5895 -22.4791 -22.4709 -22.4145  -7.3111  -6.3180  -6.3085
    -4.5249  -4.4341  -4.2101   6.3120   6.8920   7.0778   7.5879   7.5972
     8.4038   8.9705   9.0193   9.1524

          k = 0.1252 0.1252 0.3756 (  3132 PWs)   bands (ev):

   -46.0714 -22.6139 -22.4738 -22.4697 -22.4125  -7.3657  -6.2684  -6.1896
    -4.5480  -4.3728  -4.0849   5.8568   6.6530   7.0506   7.0954   7.2573
     8.3947   8.7685   8.8141   9.0498

          k = 0.1252 0.1252-0.5008 (  3150 PWs)   bands (ev):

   -46.0711 -22.6247 -22.4696 -22.4692 -22.4130  -7.3999  -6.2513  -6.1154
    -4.5581  -4.3473  -4.0381   5.6366   6.5531   6.9330   7.0265   7.1558
     8.5057   8.5775   8.7332   9.0135

          k = 0.1252 0.2504 0.2504 (  3133 PWs)   bands (ev):

   -46.0714 -22.5843 -22.4983 -22.4723 -22.4161  -7.1998  -6.3714  -6.2464
    -4.5223  -4.3880  -4.1655   6.0774   6.6599   6.9596   6.9817   7.4574
     7.9974   8.9254   8.9422   9.2825

          k = 0.1252 0.2504 0.3756 (  3142 PWs)   bands (ev):

   -46.0708 -22.5910 -22.5014 -22.4702 -22.4253  -7.1533  -6.3224  -6.1964
    -4.5524  -4.3071  -4.1347   5.7823   6.2083   6.6187   6.9287   7.1650
     8.0052   8.7338   8.8693   9.3767

          k = 0.1252 0.2504-0.5008 (  3136 PWs)   bands (ev):

   -46.0706 -22.5976 -22.4968 -22.4683 -22.4322  -7.1555  -6.2366  -6.2133
    -4.5705  -4.2575  -4.1341   5.6153   5.9929   6.5605   6.9288   7.0303
     8.0727   8.6292   8.8388   9.3832

          k = 0.1252 0.3756 0.3756 (  3159 PWs)   bands (ev):

   -46.0702 -22.5663 -22.5244 -22.4688 -22.4462  -6.9237  -6.3933  -6.1984
    -4.5372  -4.2681  -4.1658   5.6069   5.8730   6.0574   6.8788   7.0303
     7.8920   8.7098   8.7961   9.7236

          k = 0.1252 0.3756-0.5008 (  3150 PWs)   bands (ev):

   -46.0700 -22.5607 -22.5240 -22.4671 -22.4612  -6.8324  -6.3543  -6.2647
    -4.5329  -4.2204  -4.2014   5.5544   5.5637   5.9813   6.9031   6.9229
     7.8919   8.7149   8.7665   9.8227

          k = 0.1252-0.5008-0.5008 (  3148 PWs)   bands (ev):

   -46.0698 -22.5351 -22.5351 -22.4834 -22.4666  -6.5893  -6.4019  -6.4019
    -4.5067  -4.2166  -4.2166   5.4136   5.4494   5.7960   6.8859   6.8859
     7.8463   8.7611   8.7611   9.9583

          k = 0.2504 0.2504 0.2504 (  3133 PWs)   bands (ev):

   -46.0708 -22.5725 -22.4970 -22.4970 -22.4220  -7.0457  -6.2812  -6.2812
    -4.4987  -4.4987  -4.1349   5.9237   6.6583   6.6583   7.0153   7.0153
     7.2070   9.0898   9.0898   9.3990

          k = 0.2504 0.2504 0.3756 (  3160 PWs)   bands (ev):

   -46.0702 -22.5717 -22.5029 -22.4957 -22.4353  -6.9371  -6.2638  -6.1781
    -4.6227  -4.3980  -4.1741   5.7489   6.1915   6.5926   6.6098   6.7717
     7.2187   9.0739   9.1898   9.4894

          k = 0.2504 0.2504-0.5008 (  3140 PWs)   bands (ev):

   -46.0700 -22.5767 -22.4959 -22.4952 -22.4449  -6.9128  -6.2327  -6.1302
    -4.6794  -4.2762  -4.2686   5.6068   6.0038   6.4741   6.5455   6.7374
     7.2698   9.0642   9.2100   9.4956

          k = 0.2504 0.3756 0.3756 (  3143 PWs)   bands (ev):

   -46.0697 -22.5515 -22.5230 -22.4965 -22.4521  -6.6991  -6.2586  -6.1252
    -4.6577  -4.4606  -4.2631   5.6793   6.0356   6.0668   6.5172   6.6541
     6.9306   9.2193   9.3069   9.7535

          k = 0.2504 0.3756-0.5008 (  3150 PWs)   bands (ev):

   -46.0694 -22.5497 -22.5226 -22.4943 -22.4637  -6.5948  -6.2424  -6.1220
    -4.6914  -4.4004  -4.3624   5.5610   5.8396   5.9943   6.5200   6.5789
     6.9277   9.2681   9.3282   9.8508

          k = 0.2504-0.5008-0.5008 (  3136 PWs)   bands (ev):

   -46.0692 -22.5337 -22.5337 -22.4937 -22.4764  -6.3357  -6.2508  -6.2508
    -4.6521  -4.4409  -4.4409   5.4587   5.7541   5.8026   6.5495   6.5495
     6.8556   9.3491   9.3491   9.9903

          k = 0.3756 0.3756 0.3756 (  3139 PWs)   bands (ev):

   -46.0691 -22.5357 -22.5216 -22.5216 -22.4615  -6.4414  -6.0895  -6.0895
    -4.6869  -4.6869  -4.4274   5.6657   6.0783   6.0783   6.1647   6.3962
     6.3962   9.6199   9.6199   9.8409

          k = 0.3756 0.3756-0.5008 (  3154 PWs)   bands (ev):

   -46.0689 -22.5377 -22.5214 -22.5210 -22.4673  -6.2993  -6.1137  -6.0017
    -4.7983  -4.6161  -4.5678   5.5220   5.9678   6.0780   6.0851   6.3055
     6.4218   9.6839   9.7641   9.9172

          k = 0.3756-0.5008-0.5008 (  3136 PWs)   bands (ev):

   -46.0686 -22.5322 -22.5322 -22.5206 -22.4693  -6.0644  -6.0539  -6.0539
    -4.7910  -4.7095  -4.7095   5.4180   5.8091   6.0488   6.0953   6.3173
     6.3173   9.8437   9.8437  10.0227

          k =-0.5008-0.5008-0.5008 (  3112 PWs)   bands (ev):

   -46.0683 -22.5316 -22.5316 -22.5316 -22.4664  -5.9460  -5.9460  -5.9460
    -4.8468  -4.8468  -4.8468   5.3275   5.8120   5.8120   6.2374   6.2374
     6.2374  10.0364  10.0364  10.0364

     highest occupied level (ev):    10.0364

!    total energy              =    -562.37977310 Ry

     total all-electron energy =     -8511.839993 Ry
     estimated scf accuracy    <          6.5E-12 Ry

     The total energy is the sum of the following terms:
     one-electron contribution =     -71.56814918 Ry
     hartree contribution      =      60.27623227 Ry
     xc contribution           =     -58.93217385 Ry
     ewald contribution        =    -213.13831544 Ry
     one-center paw contrib.   =    -279.01736690 Ry

     convergence has been achieved in  48 iterations

     Forces acting on atoms (cartesian axes, Ry/au):

     atom    1 type  1   force =     0.00000000    0.00000000    0.00000000
     atom    2 type  2   force =     0.00000000    0.00000000    0.00000000
     atom    3 type  3   force =     0.00000000    0.00000000    0.00000000
     atom    4 type  3   force =     0.00000000    0.00000000    0.00000000
     atom    5 type  3   force =     0.00000000    0.00000000    0.00000000

     Total force =     0.000000     Total SCF correction =     0.000000


     Computing stress (Cartesian axis) and pressure

          total   stress  (Ry/bohr**3)                   (kbar)     P=       -0.57
  -0.00000391   0.00000000   0.00000000           -0.57        0.00        0.00
   0.00000000  -0.00000391   0.00000000            0.00       -0.57        0.00
   0.00000000   0.00000000  -0.00000391            0.00        0.00       -0.57

     Energy error            =      7.3E-05
     Gradient error          =      0.0E+00
     Cell gradient error     =      3.9E-06


     number of scf cycles    =   2
     number of bfgs steps    =   1

     enthalpy old            =    -562.3797000521 Ry
     enthalpy new            =    -562.3797730956 Ry

     CASE: enthalpy_new < enthalpy_old

     new trust radius        =       0.0004130764 bohr
     new conv_thr            =            1.0E-12 Ry

     new unit-cell volume =    398.16103 a.u.^3 (    59.00138 Ang^3 )
     density =      5.16399 g/cm^3

CELL_PARAMETERS (alat=  7.37000000)
   0.998202750   0.000000000   0.000000000
   0.000000000   0.998202750   0.000000000
   0.000000000   0.000000000   0.998202750

ATOMIC_POSITIONS (crystal)
Sr            0.0000000000        0.0000000000        0.0000000000
Ti            0.5000000000        0.5000000000        0.5000000000
O             0.5000000000        0.5000000000        0.0000000000
O             0.5000000000        0.0000000000        0.5000000000
O             0.0000000000        0.5000000000        0.5000000000



     Writing output data file ./tmp/SrTiO3_pbesol.save/
     NEW-OLD atomic charge density approx. for the potential

     Check: negative core charge=   -0.000002
     extrapolated charge   39.98758, renormalised to   40.00000

     total cpu time spent up to now is      223.0 secs

     Self-consistent Calculation

     iteration #  1     ecut=    60.00 Ry     beta= 0.30
     Davidson diagonalization with overlap
     ethr =  1.00E-06,  avg # of iterations =  2.0

     Threshold (ethr) on eigenvalues was too large:
     Diagonalizing with lowered threshold

     Davidson diagonalization with overlap
     ethr =  1.14E-08,  avg # of iterations =  5.4

     total cpu time spent up to now is      225.7 secs

     total energy              =    -562.37976304 Ry
     estimated scf accuracy    <       0.00000974 Ry

     iteration #  2     ecut=    60.00 Ry     beta= 0.30
     Davidson diagonalization with overlap
     ethr =  2.43E-08,  avg # of iterations =  6.0

     total cpu time spent up to now is      227.7 secs

     total energy              =    -562.37977361 Ry
     estimated scf accuracy    <       0.00000283 Ry

     iteration #  3     ecut=    60.00 Ry     beta= 0.30
     Davidson diagonalization with overlap
     ethr =  7.07E-09,  avg # of iterations =  3.1

     total cpu time spent up to now is      228.8 secs

     total energy              =    -562.37977326 Ry
     estimated scf accuracy    <       0.00000159 Ry

     iteration #  4     ecut=    60.00 Ry     beta= 0.30
     Davidson diagonalization with overlap
     ethr =  3.97E-09,  avg # of iterations =  3.3

     total cpu time spent up to now is      230.0 secs

     total energy              =    -562.37977335 Ry
     estimated scf accuracy    <       0.00000054 Ry

     iteration #  5     ecut=    60.00 Ry     beta= 0.30
     Davidson diagonalization with overlap
     ethr =  1.34E-09,  avg # of iterations =  3.9

     total cpu time spent up to now is      231.1 secs

     total energy              =    -562.37977337 Ry
     estimated scf accuracy    <       0.00000033 Ry

     iteration #  6     ecut=    60.00 Ry     beta= 0.30
     Davidson diagonalization with overlap
     ethr =  8.37E-10,  avg # of iterations =  4.1

     total cpu time spent up to now is      232.3 secs

     total energy              =    -562.37977325 Ry
     estimated scf accuracy    <       0.00000030 Ry

     iteration #  7     ecut=    60.00 Ry     beta= 0.30
     Davidson diagonalization with overlap
     ethr =  7.49E-10,  avg # of iterations =  4.7

     total cpu time spent up to now is      233.7 secs

     total energy              =    -562.37977333 Ry
     estimated scf accuracy    <       0.00000004 Ry

     iteration #  8     ecut=    60.00 Ry     beta= 0.30
     Davidson diagonalization with overlap
     ethr =  9.56E-11,  avg # of iterations =  5.5

     total cpu time spent up to now is      235.2 secs

     total energy              =    -562.37977336 Ry
     estimated scf accuracy    <       0.00000003 Ry

     iteration #  9     ecut=    60.00 Ry     beta= 0.30
     Davidson diagonalization with overlap
     ethr =  7.39E-11,  avg # of iterations =  5.1

     total cpu time spent up to now is      236.6 secs

     total energy              =    -562.37977328 Ry
     estimated scf accuracy    <       0.00000011 Ry

     iteration # 10     ecut=    60.00 Ry     beta= 0.30
     Davidson diagonalization with overlap
     ethr =  7.39E-11,  avg # of iterations = 11.2

     total cpu time spent up to now is      239.1 secs

     total energy              =    -562.37977329 Ry
     estimated scf accuracy    <       0.00000028 Ry

     iteration # 11     ecut=    60.00 Ry     beta= 0.30
     Davidson diagonalization with overlap
     ethr =  7.39E-11,  avg # of iterations =  7.2

     total cpu time spent up to now is      241.1 secs

     total energy              =    -562.37977333 Ry
     estimated scf accuracy    <       0.00000002 Ry

     iteration # 12     ecut=    60.00 Ry     beta= 0.30
     Davidson diagonalization with overlap
     ethr =  4.90E-11,  avg # of iterations =  1.8

     total cpu time spent up to now is      242.1 secs

     total energy              =    -562.37977334 Ry
     estimated scf accuracy    <       0.00000002 Ry

     iteration # 13     ecut=    60.00 Ry     beta= 0.30
     Davidson diagonalization with overlap
     ethr =  4.33E-11,  avg # of iterations =  1.6

     total cpu time spent up to now is      243.1 secs

     total energy              =    -562.37977333 Ry
     estimated scf accuracy    <       0.00000003 Ry

     iteration # 14     ecut=    60.00 Ry     beta= 0.30
     Davidson diagonalization with overlap
     ethr =  4.33E-11,  avg # of iterations =  2.1

     total cpu time spent up to now is      244.2 secs

     total energy              =    -562.37977333 Ry
     estimated scf accuracy    <       0.00000003 Ry

     iteration # 15     ecut=    60.00 Ry     beta= 0.30
     Davidson diagonalization with overlap
     ethr =  4.33E-11,  avg # of iterations =  5.4

     total cpu time spent up to now is      245.6 secs

     total energy              =    -562.37977333 Ry
     estimated scf accuracy    <          3.8E-09 Ry

     iteration # 16     ecut=    60.00 Ry     beta= 0.30
     Davidson diagonalization with overlap
     ethr =  9.54E-12,  avg # of iterations =  7.1

     total cpu time spent up to now is      247.1 secs

     total energy              =    -562.37977333 Ry
     estimated scf accuracy    <          6.6E-09 Ry

     iteration # 17     ecut=    60.00 Ry     beta= 0.30
     Davidson diagonalization with overlap
     ethr =  9.54E-12,  avg # of iterations =  1.3

     total cpu time spent up to now is      248.1 secs

     total energy              =    -562.37977333 Ry
     estimated scf accuracy    <          4.2E-09 Ry

     iteration # 18     ecut=    60.00 Ry     beta= 0.30
     Davidson diagonalization with overlap
     ethr =  9.54E-12,  avg # of iterations =  2.0

     total cpu time spent up to now is      249.1 secs

     total energy              =    -562.37977333 Ry
     estimated scf accuracy    <          1.6E-09 Ry

     iteration # 19     ecut=    60.00 Ry     beta= 0.30
     Davidson diagonalization with overlap
     ethr =  3.93E-12,  avg # of iterations =  3.2

     total cpu time spent up to now is      250.3 secs

     total energy              =    -562.37977333 Ry
     estimated scf accuracy    <          3.8E-09 Ry

     iteration # 20     ecut=    60.00 Ry     beta= 0.30
     Davidson diagonalization with overlap
     ethr =  3.93E-12,  avg # of iterations =  8.4

     total cpu time spent up to now is      252.3 secs

     total energy              =    -562.37977333 Ry
     estimated scf accuracy    <          1.2E-09 Ry

     iteration # 21     ecut=    60.00 Ry     beta= 0.30
     Davidson diagonalization with overlap
     ethr =  2.91E-12,  avg # of iterations =  1.9

     total cpu time spent up to now is      253.4 secs

     total energy              =    -562.37977333 Ry
     estimated scf accuracy    <          1.5E-09 Ry

     iteration # 22     ecut=    60.00 Ry     beta= 0.30
     Davidson diagonalization with overlap
     ethr =  2.91E-12,  avg # of iterations =  5.1

     total cpu time spent up to now is      254.7 secs

     total energy              =    -562.37977333 Ry
     estimated scf accuracy    <          4.6E-09 Ry

     iteration # 23     ecut=    60.00 Ry     beta= 0.30
     Davidson diagonalization with overlap
     ethr =  2.91E-12,  avg # of iterations =  1.8

     total cpu time spent up to now is      255.8 secs

     total energy              =    -562.37977333 Ry
     estimated scf accuracy    <          5.3E-09 Ry

     iteration # 24     ecut=    60.00 Ry     beta= 0.30
     Davidson diagonalization with overlap
     ethr =  2.91E-12,  avg # of iterations =  1.0

     total cpu time spent up to now is      256.7 secs

     total energy              =    -562.37977333 Ry
     estimated scf accuracy    <          4.8E-09 Ry

     iteration # 25     ecut=    60.00 Ry     beta= 0.30
     Davidson diagonalization with overlap
     ethr =  2.91E-12,  avg # of iterations =  1.5

     total cpu time spent up to now is      257.7 secs

     total energy              =    -562.37977333 Ry
     estimated scf accuracy    <          3.5E-09 Ry

     iteration # 26     ecut=    60.00 Ry     beta= 0.30
     Davidson diagonalization with overlap
     ethr =  2.91E-12,  avg # of iterations =  9.5

     total cpu time spent up to now is      259.8 secs

     total energy              =    -562.37977333 Ry
     estimated scf accuracy    <          3.2E-09 Ry

     iteration # 27     ecut=    60.00 Ry     beta= 0.30
     Davidson diagonalization with overlap
     ethr =  2.91E-12,  avg # of iterations =  5.9

     total cpu time spent up to now is      261.3 secs

     total energy              =    -562.37977333 Ry
     estimated scf accuracy    <          7.2E-10 Ry

     iteration # 28     ecut=    60.00 Ry     beta= 0.30
     Davidson diagonalization with overlap
     ethr =  1.79E-12,  avg # of iterations =  3.5

     total cpu time spent up to now is      262.5 secs

     total energy              =    -562.37977333 Ry
     estimated scf accuracy    <          3.5E-10 Ry

     iteration # 29     ecut=    60.00 Ry     beta= 0.30
     Davidson diagonalization with overlap
     ethr =  8.84E-13,  avg # of iterations =  4.3

     total cpu time spent up to now is      263.8 secs

     total energy              =    -562.37977333 Ry
     estimated scf accuracy    <          2.5E-10 Ry

     iteration # 30     ecut=    60.00 Ry     beta= 0.30
     Davidson diagonalization with overlap
     ethr =  6.20E-13,  avg # of iterations = 11.1

     total cpu time spent up to now is      266.3 secs

     total energy              =    -562.37977333 Ry
     estimated scf accuracy    <          5.6E-09 Ry

     iteration # 31     ecut=    60.00 Ry     beta= 0.30
     Davidson diagonalization with overlap
     ethr =  6.20E-13,  avg # of iterations = 11.4

     total cpu time spent up to now is      268.9 secs

     total energy              =    -562.37977333 Ry
     estimated scf accuracy    <          1.1E-10 Ry

     iteration # 32     ecut=    60.00 Ry     beta= 0.30
     Davidson diagonalization with overlap
     ethr =  2.79E-13,  avg # of iterations =  2.4

     total cpu time spent up to now is      270.0 secs

     total energy              =    -562.37977333 Ry
     estimated scf accuracy    <          8.4E-11 Ry

     iteration # 33     ecut=    60.00 Ry     beta= 0.30
     Davidson diagonalization with overlap
     ethr =  2.10E-13,  avg # of iterations =  2.2

     total cpu time spent up to now is      271.1 secs

     total energy              =    -562.37977333 Ry
     estimated scf accuracy    <          3.0E-11 Ry

     iteration # 34     ecut=    60.00 Ry     beta= 0.30
     Davidson diagonalization with overlap
     ethr =  1.00E-13,  avg # of iterations =  2.5

     total cpu time spent up to now is      272.2 secs

     total energy              =    -562.37977333 Ry
     estimated scf accuracy    <          4.8E-11 Ry

     iteration # 35     ecut=    60.00 Ry     beta= 0.30
     Davidson diagonalization with overlap
     ethr =  1.00E-13,  avg # of iterations =  8.3

     total cpu time spent up to now is      274.3 secs

     total energy              =    -562.37977333 Ry
     estimated scf accuracy    <          1.2E-10 Ry

     iteration # 36     ecut=    60.00 Ry     beta= 0.30
     Davidson diagonalization with overlap
     ethr =  1.00E-13,  avg # of iterations =  1.5

     total cpu time spent up to now is      275.3 secs

     total energy              =    -562.37977333 Ry
     estimated scf accuracy    <          6.4E-11 Ry

     iteration # 37     ecut=    60.00 Ry     beta= 0.30
     Davidson diagonalization with overlap
     ethr =  1.00E-13,  avg # of iterations =  1.0

     total cpu time spent up to now is      276.2 secs

     total energy              =    -562.37977333 Ry
     estimated scf accuracy    <          6.8E-11 Ry

     iteration # 38     ecut=    60.00 Ry     beta= 0.30
     Davidson diagonalization with overlap
     ethr =  1.00E-13,  avg # of iterations =  3.4

     total cpu time spent up to now is      277.3 secs

     total energy              =    -562.37977333 Ry
     estimated scf accuracy    <          2.4E-11 Ry

     iteration # 39     ecut=    60.00 Ry     beta= 0.30
     Davidson diagonalization with overlap
     ethr =  1.00E-13,  avg # of iterations =  1.9

     total cpu time spent up to now is      278.4 secs

     total energy              =    -562.37977333 Ry
     estimated scf accuracy    <          1.6E-11 Ry

     iteration # 40     ecut=    60.00 Ry     beta= 0.30
     Davidson diagonalization with overlap
     ethr =  1.00E-13,  avg # of iterations =  5.8

     total cpu time spent up to now is      279.7 secs

     total energy              =    -562.37977333 Ry
     estimated scf accuracy    <          4.4E-12 Ry

     iteration # 41     ecut=    60.00 Ry     beta= 0.30
     Davidson diagonalization with overlap
     ethr =  1.00E-13,  avg # of iterations =  1.7

     total cpu time spent up to now is      280.7 secs

     total energy              =    -562.37977333 Ry
     estimated scf accuracy    <          3.0E-12 Ry

     iteration # 42     ecut=    60.00 Ry     beta= 0.30
     Davidson diagonalization with overlap
     ethr =  1.00E-13,  avg # of iterations =  1.1

     total cpu time spent up to now is      281.7 secs

     total energy              =    -562.37977333 Ry
     estimated scf accuracy    <          2.9E-12 Ry

     iteration # 43     ecut=    60.00 Ry     beta= 0.30
     Davidson diagonalization with overlap
     ethr =  1.00E-13,  avg # of iterations =  1.3

     total cpu time spent up to now is      282.6 secs

     total energy              =    -562.37977333 Ry
     estimated scf accuracy    <          4.3E-12 Ry

     iteration # 44     ecut=    60.00 Ry     beta= 0.30
     Davidson diagonalization with overlap
     ethr =  1.00E-13,  avg # of iterations =  1.2

     total cpu time spent up to now is      283.6 secs

     total energy              =    -562.37977333 Ry
     estimated scf accuracy    <          5.2E-12 Ry

     iteration # 45     ecut=    60.00 Ry     beta= 0.30
     Davidson diagonalization with overlap
     ethr =  1.00E-13,  avg # of iterations =  1.0

     total cpu time spent up to now is      284.5 secs

     total energy              =    -562.37977333 Ry
     estimated scf accuracy    <          3.7E-12 Ry

     iteration # 46     ecut=    60.00 Ry     beta= 0.30
     Davidson diagonalization with overlap
     ethr =  1.00E-13,  avg # of iterations =  1.0

     total cpu time spent up to now is      285.4 secs

     total energy              =    -562.37977333 Ry
     estimated scf accuracy    <          4.4E-12 Ry

     iteration # 47     ecut=    60.00 Ry     beta= 0.30
     Davidson diagonalization with overlap
     ethr =  1.00E-13,  avg # of iterations =  1.0

     total cpu time spent up to now is      286.4 secs

     total energy              =    -562.37977333 Ry
     estimated scf accuracy    <          3.7E-12 Ry

     iteration # 48     ecut=    60.00 Ry     beta= 0.30
     Davidson diagonalization with overlap
     ethr =  1.00E-13,  avg # of iterations =  1.0

     total cpu time spent up to now is      287.3 secs

     total energy              =    -562.37977333 Ry
     estimated scf accuracy    <          1.8E-12 Ry

     iteration # 49     ecut=    60.00 Ry     beta= 0.30
     Davidson diagonalization with overlap
     ethr =  1.00E-13,  avg # of iterations =  1.1

     total cpu time spent up to now is      288.3 secs

     End of self-consistent calculation

          k = 0.0000 0.0000 0.0000 (  3119 PWs)   bands (ev):

   -46.0675 -22.5273 -22.4562 -22.4562 -22.4562  -7.3493  -6.3386  -6.3386
    -4.5530  -4.5530  -4.5530   7.2021   7.2021   7.2021   8.8370   8.8370
     8.8370   9.7039   9.7039   9.7039

          k = 0.0000 0.0000 0.1252 (  3126 PWs)   bands (ev):

   -46.0673 -22.5503 -22.4557 -22.4557 -22.4407  -7.3548  -6.3407  -6.3324
    -4.5456  -4.5456  -4.4444   6.9918   7.1886   7.1886   8.6259   8.6259
     8.6926   9.2142   9.6025   9.6025

          k = 0.0000 0.0000 0.2505 (  3118 PWs)   bands (ev):

   -46.0667 -22.5917 -22.4546 -22.4546 -22.4170  -7.4204  -6.3173  -6.2506
    -4.5276  -4.5276  -4.2161   6.4635   7.1613   7.1613   8.1791   8.1791
     8.3408   8.3773   9.4564   9.4564

          k = 0.0000 0.0000 0.3757 (  3138 PWs)   bands (ev):

   -46.0661 -22.6264 -22.4534 -22.4534 -22.3998  -7.5286  -6.3022  -6.0700
    -4.5094  -4.5094  -4.0214   5.9000   7.1508   7.1508   7.7139   7.7886
     7.7886   8.0983   9.3560   9.3560

          k = 0.0000 0.0000-0.5009 (  3178 PWs)   bands (ev):

   -46.0659 -22.6399 -22.4529 -22.4529 -22.3936  -7.5786  -6.2959  -5.9774
    -4.5018  -4.5018  -3.9484   5.6573   7.1593   7.1593   7.5001   7.6291
     7.6291   7.9910   9.3205   9.3205

          k = 0.0000 0.1252 0.1252 (  3127 PWs)   bands (ev):

   -46.0670 -22.5604 -22.4671 -22.4552 -22.4263  -7.3420  -6.3589  -6.3205
    -4.5379  -4.4900  -4.4000   6.8454   7.1104   7.1760   8.1872   8.4561
     8.8449   9.0451   9.3300   9.4675

          k = 0.0000 0.1252 0.2505 (  3127 PWs)   bands (ev):

   -46.0665 -22.5882 -22.4708 -22.4541 -22.4119  -7.3660  -6.3357  -6.2664
    -4.5193  -4.4584  -4.2190   6.3977   6.9818   7.1504   7.6022   8.0662
     8.3859   8.8238   9.1561   9.2739

          k = 0.0000 0.1252 0.3757 (  3138 PWs)   bands (ev):

   -46.0659 -22.6173 -22.4669 -22.4530 -22.4036  -7.4459  -6.2896  -6.1371
    -4.5006  -4.4418  -4.0509   5.8804   6.8151   7.1426   7.1639   7.7024
     7.9952   8.6996   9.0249   9.1509

          k = 0.0000 0.1252-0.5009 (  3156 PWs)   bands (ev):

   -46.0657 -22.6293 -22.4644 -22.4525 -22.4009  -7.4878  -6.2744  -6.0604
    -4.4927  -4.4345  -3.9875   5.6477   6.7101   7.0460   7.1544   7.5477
     7.8747   8.6417   8.9751   9.1095

          k = 0.0000 0.2505 0.2505 (  3129 PWs)   bands (ev):

   -46.0659 -22.5849 -22.4934 -22.4530 -22.4108  -7.2668  -6.4021  -6.2210
    -4.4993  -4.3397  -4.1977   6.1512   6.6623   6.9287   7.1274   7.7874
     8.2952   8.6536   8.9787   9.2862

          k = 0.0000 0.2505 0.3757 (  3143 PWs)   bands (ev):

   -46.0653 -22.5931 -22.4965 -22.4518 -22.4173  -7.2351  -6.3542  -6.1931
    -4.4791  -4.3006  -4.1114   5.7986   6.1889   6.6147   7.1211   7.4966
     8.1493   8.5785   8.7863   9.3759

          k = 0.0000 0.2505-0.5009 (  3134 PWs)   bands (ev):

   -46.0651 -22.6000 -22.4919 -22.4514 -22.4223  -7.2433  -6.2508  -6.2376
    -4.4706  -4.2934  -4.0677   5.6214   5.9523   6.5754   7.1388   7.3584
     8.1155   8.5499   8.7236   9.3816

          k = 0.0000 0.3757 0.3757 (  3157 PWs)   bands (ev):

   -46.0647 -22.5666 -22.5196 -22.4508 -22.4397  -7.0086  -6.4389  -6.2286
    -4.4573  -4.1891  -4.1402   5.5576   5.8297   6.0573   7.1044   7.2855
     8.2698   8.4827   8.5240   9.7210

          k = 0.0000 0.3757-0.5009 (  3138 PWs)   bands (ev):

   -46.0645 -22.5596 -22.5191 -22.4548 -22.4503  -6.9204  -6.3929  -6.3181
    -4.4483  -4.1721  -4.1176   5.4505   5.5532   5.9797   7.1171   7.1781
     8.3502   8.4349   8.4476   9.8177

          k = 0.0000-0.5009-0.5009 (  3168 PWs)   bands (ev):

   -46.0643 -22.5304 -22.5304 -22.4809 -22.4499  -6.6866  -6.4526  -6.4526
    -4.4390  -4.1258  -4.1258   5.2752   5.4458   5.7965   7.1056   7.1056
     8.3340   8.4470   8.4470   9.9496

          k = 0.1252 0.1252 0.1252 (  3131 PWs)   bands (ev):

   -46.0668 -22.5654 -22.4666 -22.4666 -22.4173  -7.3164  -6.3434  -6.3434
    -4.4983  -4.4983  -4.3438   6.6947   7.1023   7.1023   8.0829   8.0829
     8.7587   8.9966   9.2808   9.2808

          k = 0.1252 0.1252 0.2505 (  3133 PWs)   bands (ev):

   -46.0662 -22.5842 -22.4736 -22.4654 -22.4089  -7.3078  -6.3142  -6.3048
    -4.5197  -4.4288  -4.2046   6.3158   6.8959   7.0818   7.5914   7.6008
     8.4080   8.9745   9.0236   9.1567

          k = 0.1252 0.1252 0.3757 (  3132 PWs)   bands (ev):

   -46.0656 -22.6086 -22.4683 -22.4642 -22.4070  -7.3625  -6.2647  -6.1856
    -4.5427  -4.3675  -4.0794   5.8603   6.6565   7.0543   7.0991   7.2610
     8.3988   8.7728   8.8180   9.0540

          k = 0.1252 0.1252-0.5009 (  3150 PWs)   bands (ev):

   -46.0654 -22.6194 -22.4641 -22.4638 -22.4075  -7.3967  -6.2477  -6.1113
    -4.5528  -4.3419  -4.0325   5.6400   6.5564   6.9368   7.0300   7.1598
     8.5097   8.5818   8.7370   9.0177

          k = 0.1252 0.2505 0.2505 (  3133 PWs)   bands (ev):

   -46.0656 -22.5790 -22.4929 -22.4669 -22.4105  -7.1964  -6.3676  -6.2426
    -4.5171  -4.3827  -4.1600   6.0809   6.6637   6.9634   6.9854   7.4609
     8.0016   8.9296   8.9464   9.2867

          k = 0.1252 0.2505 0.3757 (  3142 PWs)   bands (ev):

   -46.0651 -22.5858 -22.4960 -22.4647 -22.4198  -7.1499  -6.3185  -6.1926
    -4.5472  -4.3017  -4.1292   5.7857   6.2116   6.6225   6.9323   7.1686
     8.0094   8.7378   8.8734   9.3808

          k = 0.1252 0.2505-0.5009 (  3136 PWs)   bands (ev):

   -46.0648 -22.5923 -22.4914 -22.4628 -22.4267  -7.1522  -6.2326  -6.2095
    -4.5653  -4.2521  -4.1286   5.6188   5.9960   6.5643   6.9322   7.0340
     8.0770   8.6332   8.8429   9.3874

          k = 0.1252 0.3757 0.3757 (  3159 PWs)   bands (ev):

   -46.0645 -22.5609 -22.5190 -22.4633 -22.4407  -6.9202  -6.3895  -6.1945
    -4.5320  -4.2627  -4.1603   5.6102   5.8765   6.0609   6.8823   7.0337
     7.8963   8.7139   8.8002   9.7279

          k = 0.1252 0.3757-0.5009 (  3150 PWs)   bands (ev):

   -46.0643 -22.5553 -22.5186 -22.4616 -22.4557  -6.8289  -6.3504  -6.2609
    -4.5277  -4.2150  -4.1960   5.5580   5.5667   5.9848   6.9064   6.9264
     7.8963   8.7190   8.7705   9.8270

          k = 0.1252-0.5009-0.5009 (  3148 PWs)   bands (ev):

   -46.0640 -22.5298 -22.5298 -22.4780 -22.4612  -6.5858  -6.3980  -6.3980
    -4.5014  -4.2112  -4.2112   5.4165   5.4530   5.7993   6.8893   6.8893
     7.8508   8.7652   8.7652   9.9627

          k = 0.2505 0.2505 0.2505 (  3133 PWs)   bands (ev):

   -46.0651 -22.5672 -22.4916 -22.4916 -22.4164  -7.0422  -6.2774  -6.2774
    -4.4935  -4.4935  -4.1293   5.9271   6.6622   6.6622   7.0188   7.0188
     7.2111   9.0939   9.0939   9.4032

          k = 0.2505 0.2505 0.3757 (  3160 PWs)   bands (ev):

   -46.0645 -22.5664 -22.4975 -22.4903 -22.4298  -6.9336  -6.2599  -6.1743
    -4.6176  -4.3927  -4.1686   5.7523   6.1949   6.5963   6.6134   6.7754
     7.2225   9.0779   9.1940   9.4935

          k = 0.2505 0.2505-0.5009 (  3140 PWs)   bands (ev):

   -46.0642 -22.5714 -22.4905 -22.4897 -22.4394  -6.9093  -6.2287  -6.1263
    -4.6743  -4.2709  -4.2632   5.6103   6.0069   6.4778   6.5490   6.7412
     7.2737   9.0683   9.2141   9.4998

          k = 0.2505 0.3757 0.3757 (  3143 PWs)   bands (ev):

   -46.0639 -22.5461 -22.5176 -22.4911 -22.4466  -6.6955  -6.2547  -6.1213
    -4.6526  -4.4554  -4.2577   5.6828   6.0390   6.0702   6.5207   6.6575
     6.9346   9.2234   9.3111   9.7578

          k = 0.2505 0.3757-0.5009 (  3150 PWs)   bands (ev):

   -46.0637 -22.5444 -22.5172 -22.4888 -22.4583  -6.5911  -6.2384  -6.1180
    -4.6863  -4.3952  -4.3571   5.5646   5.8428   5.9977   6.5235   6.5825
     6.9316   9.2722   9.3324   9.8551

          k = 0.2505-0.5009-0.5009 (  3136 PWs)   bands (ev):

   -46.0634 -22.5283 -22.5283 -22.4883 -22.4709  -6.3319  -6.2468  -6.2468
    -4.6470  -4.4357  -4.4357   5.4624   5.7573   5.8059   6.5530   6.5530
     6.8596   9.3533   9.3533   9.9947

          k = 0.3757 0.3757 0.3757 (  3139 PWs)   bands (ev):

   -46.0633 -22.5303 -22.5162 -22.5162 -22.4560  -6.4375  -6.0855  -6.0855
    -4.6819  -4.6819  -4.4221   5.6696   6.0818   6.0818   6.1682   6.3997
     6.3997   9.6241   9.6241   9.8452

          k = 0.3757 0.3757-0.5009 (  3154 PWs)   bands (ev):

   -46.0631 -22.5323 -22.5160 -22.5156 -22.4619  -6.2954  -6.1097  -5.9976
    -4.7933  -4.6111  -4.5627   5.5258   5.9713   6.0813   6.0886   6.3090
     6.4253   9.6882   9.7684   9.9216

          k = 0.3757-0.5009-0.5009 (  3136 PWs)   bands (ev):

   -46.0629 -22.5269 -22.5269 -22.5152 -22.4639  -6.0604  -6.0499  -6.0499
    -4.7861  -4.7045  -4.7045   5.4218   5.8124   6.0523   6.0988   6.3209
     6.3209   9.8480   9.8480  10.0271

          k =-0.5009-0.5009-0.5009 (  3112 PWs)   bands (ev):

   -46.0626 -22.5262 -22.5262 -22.5262 -22.4609  -5.9419  -5.9419  -5.9419
    -4.8419  -4.8419  -4.8419   5.3313   5.8152   5.8152   6.2409   6.2409
     6.2409  10.0408  10.0408  10.0408

     highest occupied level (ev):    10.0408

!    total energy              =    -562.37977333 Ry

     total all-electron energy =     -8511.839993 Ry
     estimated scf accuracy    <          1.6E-14 Ry

     The total energy is the sum of the following terms:
     one-electron contribution =     -71.53634112 Ry
     hartree contribution      =      60.26759272 Ry
     xc contribution           =     -58.93325102 Ry
     ewald contribution        =    -213.16037567 Ry
     one-center paw contrib.   =    -279.01739823 Ry

     convergence has been achieved in  49 iterations

     Forces acting on atoms (cartesian axes, Ry/au):

     atom    1 type  1   force =     0.00000000    0.00000000    0.00000000
     atom    2 type  2   force =     0.00000000    0.00000000    0.00000000
     atom    3 type  3   force =     0.00000000    0.00000000    0.00000000
     atom    4 type  3   force =     0.00000000    0.00000000    0.00000000
     atom    5 type  3   force =     0.00000000    0.00000000    0.00000000

     Total force =     0.000000     Total SCF correction =     0.000000


     Computing stress (Cartesian axis) and pressure

          total   stress  (Ry/bohr**3)                   (kbar)     P=        0.01
   0.00000006   0.00000000   0.00000000            0.01        0.00        0.00
   0.00000000   0.00000006   0.00000000            0.00        0.01        0.00
   0.00000000   0.00000000   0.00000006            0.00        0.00        0.01

     Energy error            =      2.4E-07
     Gradient error          =      0.0E+00
     Cell gradient error     =      6.5E-08


     bfgs converged in   3 scf cycles and   2 bfgs steps
     (criteria: energy <  1.0E-06 Ry, force <  1.0E-05Ry/Bohr, cell <  1.0E-01kbar)

     End of BFGS Geometry Optimization

     Final enthalpy =    -562.3797733329 Ry

     File ./tmp/SrTiO3_pbesol.bfgs deleted, as requested
Begin final coordinates
     new unit-cell volume =    398.16103 a.u.^3 (    59.00138 Ang^3 )
     density =      5.16399 g/cm^3

CELL_PARAMETERS (alat=  7.37000000)
   0.998202750   0.000000000   0.000000000
   0.000000000   0.998202750   0.000000000
   0.000000000   0.000000000   0.998202750

ATOMIC_POSITIONS (crystal)
Sr            0.0000000000        0.0000000000        0.0000000000
Ti            0.5000000000        0.5000000000        0.5000000000
O             0.5000000000        0.5000000000        0.0000000000
O             0.5000000000        0.0000000000        0.5000000000
O             0.0000000000        0.5000000000        0.5000000000
End final coordinates



     Writing output data file ./tmp/SrTiO3_pbesol.save/

     Final scf calculation at the relaxed structure.
     The G-vectors are recalculated for the final unit cell
     Results may differ from those at the preceding step.

     Parallelization info
     --------------------
     sticks:   dense  smooth     PW     G-vecs:    dense   smooth      PW
     Min         259     130     38                 8843     3146     508
     Max         260     131     39                 8846     3149     510
     Sum        2077    1041    305                70751    25173    4067



     bravais-lattice index     =            1
     lattice parameter (alat)  =       7.3700  a.u.
     unit-cell volume          =     398.1610 (a.u.)^3
     number of atoms/cell      =            5
     number of atomic types    =            3
     number of electrons       =        40.00
     number of Kohn-Sham states=           20
     kinetic-energy cutoff     =      60.0000  Ry
     charge density cutoff     =     480.0000  Ry
     scf convergence threshold =      1.0E-12
     mixing beta               =       0.3000
     number of iterations used =            8  plain     mixing
     press convergence thresh. =      1.0E-01
     Exchange-correlation= SLA  PW   PSX  PSC
                           (   1   4  10   8   0   0   0)

     celldm(1)=   7.370000  celldm(2)=   0.000000  celldm(3)=   0.000000
     celldm(4)=   0.000000  celldm(5)=   0.000000  celldm(6)=   0.000000

     crystal axes: (cart. coord. in units of alat)
               a(1) = (   0.998203   0.000000   0.000000 )  
               a(2) = (   0.000000   0.998203   0.000000 )  
               a(3) = (   0.000000   0.000000   0.998203 )  

     reciprocal axes: (cart. coord. in units 2 pi/alat)
               b(1) = (  1.001800  0.000000  0.000000 )  
               b(2) = (  0.000000  1.001800  0.000000 )  
               b(3) = (  0.000000  0.000000  1.001800 )  


     PseudoPot. # 1 for Sr read from file:
     ./pseudo/Sr.pbesol-spn-kjpaw_psl.1.0.0.UPF
     MD5 check sum: 5f6d651ace59fc2f5ab95f6a3abc31cb
     Pseudo is Projector augmented-wave + core cor, Zval = 10.0
     Generated using &quot;atomic&quot; code by A. Dal Corso  v.6.2.2
     Shape of augmentation charge: PSQ
     Using radial grid of 1221 points,  6 beta functions with: 
                l(1) =   0
                l(2) =   0
                l(3) =   1
                l(4) =   1
                l(5) =   2
                l(6) =   2
     Q(r) pseudized with 0 coefficients 


     PseudoPot. # 2 for Ti read from file:
     ./pseudo/Ti.pbesol-spn-kjpaw_psl.1.0.0.UPF
     MD5 check sum: 37a32a5821746b2d50d64995a8e5b789
     Pseudo is Projector augmented-wave + core cor, Zval = 12.0
     Generated using &quot;atomic&quot; code by A. Dal Corso  v.6.2.2
     Shape of augmentation charge: PSQ
     Using radial grid of 1177 points,  6 beta functions with: 
                l(1) =   0
                l(2) =   0
                l(3) =   1
                l(4) =   1
                l(5) =   2
                l(6) =   2
     Q(r) pseudized with 0 coefficients 


     PseudoPot. # 3 for O  read from file:
     ./pseudo/O.pbesol-n-kjpaw_psl.1.0.0.UPF
     MD5 check sum: cb766521a97cf798d01896eaf7ac9a0a
     Pseudo is Projector augmented-wave + core cor, Zval =  6.0
     Generated using &quot;atomic&quot; code by A. Dal Corso  v.6.3
     Shape of augmentation charge: PSQ
     Using radial grid of 1095 points,  4 beta functions with: 
                l(1) =   0
                l(2) =   0
                l(3) =   1
                l(4) =   1
     Q(r) pseudized with 0 coefficients 


     atomic species   valence    mass     pseudopotential
        Sr            10.00    87.62000     Sr( 1.00)
        Ti            12.00    47.86700     Ti( 1.00)
        O              6.00    15.99900     O ( 1.00)

     48 Sym. Ops., with inversion, found



   Cartesian axes

     site n.     atom                  positions (alat units)
         1           Sr  tau(   1) = (   0.0000000   0.0000000   0.0000000  )
         2           Ti  tau(   2) = (   0.4991014   0.4991014   0.4991014  )
         3           O   tau(   3) = (   0.4991014   0.4991014   0.0000000  )
         4           O   tau(   4) = (   0.4991014   0.0000000   0.4991014  )
         5           O   tau(   5) = (   0.0000000   0.4991014   0.4991014  )

     number of k points=    35
                       cart. coord. in units 2pi/alat
        k(    1) = (   0.0000000   0.0000000   0.0000000), wk =   0.0039062
        k(    2) = (   0.0000000   0.0000000   0.1252251), wk =   0.0234375
        k(    3) = (   0.0000000   0.0000000   0.2504501), wk =   0.0234375
        k(    4) = (   0.0000000   0.0000000   0.3756752), wk =   0.0234375
        k(    5) = (   0.0000000   0.0000000  -0.5009002), wk =   0.0117188
        k(    6) = (   0.0000000   0.1252251   0.1252251), wk =   0.0468750
        k(    7) = (   0.0000000   0.1252251   0.2504501), wk =   0.0937500
        k(    8) = (   0.0000000   0.1252251   0.3756752), wk =   0.0937500
        k(    9) = (   0.0000000   0.1252251  -0.5009002), wk =   0.0468750
        k(   10) = (   0.0000000   0.2504501   0.2504501), wk =   0.0468750
        k(   11) = (   0.0000000   0.2504501   0.3756752), wk =   0.0937500
        k(   12) = (   0.0000000   0.2504501  -0.5009002), wk =   0.0468750
        k(   13) = (   0.0000000   0.3756752   0.3756752), wk =   0.0468750
        k(   14) = (   0.0000000   0.3756752  -0.5009002), wk =   0.0468750
        k(   15) = (   0.0000000  -0.5009002  -0.5009002), wk =   0.0117188
        k(   16) = (   0.1252251   0.1252251   0.1252251), wk =   0.0312500
        k(   17) = (   0.1252251   0.1252251   0.2504501), wk =   0.0937500
        k(   18) = (   0.1252251   0.1252251   0.3756752), wk =   0.0937500
        k(   19) = (   0.1252251   0.1252251  -0.5009002), wk =   0.0468750
        k(   20) = (   0.1252251   0.2504501   0.2504501), wk =   0.0937500
        k(   21) = (   0.1252251   0.2504501   0.3756752), wk =   0.1875000
        k(   22) = (   0.1252251   0.2504501  -0.5009002), wk =   0.0937500
        k(   23) = (   0.1252251   0.3756752   0.3756752), wk =   0.0937500
        k(   24) = (   0.1252251   0.3756752  -0.5009002), wk =   0.0937500
        k(   25) = (   0.1252251  -0.5009002  -0.5009002), wk =   0.0234375
        k(   26) = (   0.2504501   0.2504501   0.2504501), wk =   0.0312500
        k(   27) = (   0.2504501   0.2504501   0.3756752), wk =   0.0937500
        k(   28) = (   0.2504501   0.2504501  -0.5009002), wk =   0.0468750
        k(   29) = (   0.2504501   0.3756752   0.3756752), wk =   0.0937500
        k(   30) = (   0.2504501   0.3756752  -0.5009002), wk =   0.0937500
        k(   31) = (   0.2504501  -0.5009002  -0.5009002), wk =   0.0234375
        k(   32) = (   0.3756752   0.3756752   0.3756752), wk =   0.0312500
        k(   33) = (   0.3756752   0.3756752  -0.5009002), wk =   0.0468750
        k(   34) = (   0.3756752  -0.5009002  -0.5009002), wk =   0.0234375
        k(   35) = (  -0.5009002  -0.5009002  -0.5009002), wk =   0.0039062

     Dense  grid:    70751 G-vectors     FFT dimensions: (  54,  54,  54)

     Smooth grid:    25173 G-vectors     FFT dimensions: (  40,  40,  40)

     Estimated max dynamical RAM per process >      48.10 MB

     Estimated total dynamical RAM >     384.80 MB

     Check: negative core charge=   -0.000002

     Initial potential from superposition of free atoms

     starting charge   39.99155, renormalised to   40.00000
     Starting wfcs are   30 randomized atomic wfcs
     Checking if some PAW data can be deallocated... 

     total cpu time spent up to now is      293.1 secs

     Self-consistent Calculation

     iteration #  1     ecut=    60.00 Ry     beta= 0.30
     Davidson diagonalization with overlap
     c_bands:  1 eigenvalues not converged
     ethr =  1.00E-06,  avg # of iterations = 16.9

     total cpu time spent up to now is      298.8 secs

     total energy              =    -562.06311961 Ry
     estimated scf accuracy    <       1.66251883 Ry

     iteration #  2     ecut=    60.00 Ry     beta= 0.30
     Davidson diagonalization with overlap
     ethr =  4.16E-03,  avg # of iterations =  1.3

     total cpu time spent up to now is      299.8 secs

     total energy              =    -561.76712707 Ry
     estimated scf accuracy    <       0.50312847 Ry

     iteration #  3     ecut=    60.00 Ry     beta= 0.30
     Davidson diagonalization with overlap
     c_bands:  2 eigenvalues not converged
     c_bands:  4 eigenvalues not converged
     ethr =  1.26E-03,  avg # of iterations = 13.9

     total cpu time spent up to now is      302.7 secs

     total energy              =    -562.97309544 Ry
     estimated scf accuracy    <      15.50519712 Ry

     iteration #  4     ecut=    60.00 Ry     beta= 0.30
     Davidson diagonalization with overlap
     ethr =  1.26E-03,  avg # of iterations =  1.5

     total cpu time spent up to now is      303.7 secs

     total energy              =    -560.63475814 Ry
     estimated scf accuracy    <      13.73715819 Ry

     iteration #  5     ecut=    60.00 Ry     beta= 0.30
     Davidson diagonalization with overlap
     ethr =  1.26E-03,  avg # of iterations = 11.8

     total cpu time spent up to now is      306.1 secs

     total energy              =    -562.19779166 Ry
     estimated scf accuracy    <       0.08466525 Ry

     iteration #  6     ecut=    60.00 Ry     beta= 0.30
     Davidson diagonalization with overlap
     ethr =  2.12E-04,  avg # of iterations =  7.3

     total cpu time spent up to now is      308.1 secs

     total energy              =    -562.31518136 Ry
     estimated scf accuracy    <       0.22287659 Ry

     iteration #  7     ecut=    60.00 Ry     beta= 0.30
     Davidson diagonalization with overlap
     ethr =  2.12E-04,  avg # of iterations =  2.3

     total cpu time spent up to now is      309.2 secs

     total energy              =    -562.33983725 Ry
     estimated scf accuracy    <       0.09523393 Ry

     iteration #  8     ecut=    60.00 Ry     beta= 0.30
     Davidson diagonalization with overlap
     ethr =  2.12E-04,  avg # of iterations =  1.9

     total cpu time spent up to now is      310.2 secs

     total energy              =    -562.34106582 Ry
     estimated scf accuracy    <       0.07421901 Ry

     iteration #  9     ecut=    60.00 Ry     beta= 0.30
     Davidson diagonalization with overlap
     ethr =  1.86E-04,  avg # of iterations =  1.5

     total cpu time spent up to now is      311.2 secs

     total energy              =    -562.33650506 Ry
     estimated scf accuracy    <       0.06151537 Ry

     iteration # 10     ecut=    60.00 Ry     beta= 0.30
     Davidson diagonalization with overlap
     ethr =  1.54E-04,  avg # of iterations =  1.8

     total cpu time spent up to now is      312.2 secs

     total energy              =    -562.33332319 Ry
     estimated scf accuracy    <       0.04264524 Ry

     iteration # 11     ecut=    60.00 Ry     beta= 0.30
     Davidson diagonalization with overlap
     ethr =  1.07E-04,  avg # of iterations =  2.6

     total cpu time spent up to now is      313.3 secs

     total energy              =    -562.34293060 Ry
     estimated scf accuracy    <       0.03249826 Ry

     iteration # 12     ecut=    60.00 Ry     beta= 0.30
     Davidson diagonalization with overlap
     ethr =  8.12E-05,  avg # of iterations =  2.9

     total cpu time spent up to now is      314.3 secs

     total energy              =    -562.35401513 Ry
     estimated scf accuracy    <       0.02563533 Ry

     iteration # 13     ecut=    60.00 Ry     beta= 0.30
     Davidson diagonalization with overlap
     ethr =  6.41E-05,  avg # of iterations =  2.3

     total cpu time spent up to now is      315.4 secs

     total energy              =    -562.36326194 Ry
     estimated scf accuracy    <       0.03167494 Ry

     iteration # 14     ecut=    60.00 Ry     beta= 0.30
     Davidson diagonalization with overlap
     ethr =  6.41E-05,  avg # of iterations =  3.7

     total cpu time spent up to now is      316.5 secs

     total energy              =    -562.36371681 Ry
     estimated scf accuracy    <       0.00999010 Ry

     iteration # 15     ecut=    60.00 Ry     beta= 0.30
     Davidson diagonalization with overlap
     c_bands:  1 eigenvalues not converged
     ethr =  2.50E-05,  avg # of iterations =  8.2

     total cpu time spent up to now is      318.3 secs

     total energy              =    -562.38270135 Ry
     estimated scf accuracy    <       0.00734624 Ry

     iteration # 16     ecut=    60.00 Ry     beta= 0.30
     Davidson diagonalization with overlap
     ethr =  1.84E-05,  avg # of iterations =  4.3

     total cpu time spent up to now is      319.5 secs

     total energy              =    -562.38142244 Ry
     estimated scf accuracy    <       0.01750459 Ry

     iteration # 17     ecut=    60.00 Ry     beta= 0.30
     Davidson diagonalization with overlap
     ethr =  1.84E-05,  avg # of iterations =  1.9

     total cpu time spent up to now is      320.6 secs

     total energy              =    -562.37891881 Ry
     estimated scf accuracy    <       0.01410027 Ry

     iteration # 18     ecut=    60.00 Ry     beta= 0.30
     Davidson diagonalization with overlap
     ethr =  1.84E-05,  avg # of iterations =  2.0

     total cpu time spent up to now is      321.6 secs

     total energy              =    -562.38090811 Ry
     estimated scf accuracy    <       0.00726908 Ry

     iteration # 19     ecut=    60.00 Ry     beta= 0.30
     Davidson diagonalization with overlap
     ethr =  1.82E-05,  avg # of iterations =  1.0

     total cpu time spent up to now is      322.6 secs

     total energy              =    -562.37477383 Ry
     estimated scf accuracy    <       0.00917905 Ry

     iteration # 20     ecut=    60.00 Ry     beta= 0.30
     Davidson diagonalization with overlap
     ethr =  1.82E-05,  avg # of iterations =  7.9

     total cpu time spent up to now is      324.5 secs

     total energy              =    -562.38893318 Ry
     estimated scf accuracy    <       0.01309386 Ry

     iteration # 21     ecut=    60.00 Ry     beta= 0.30
     Davidson diagonalization with overlap
     ethr =  1.82E-05,  avg # of iterations =  4.5

     total cpu time spent up to now is      325.8 secs

     total energy              =    -562.40152042 Ry
     estimated scf accuracy    <       0.03964192 Ry

     iteration # 22     ecut=    60.00 Ry     beta= 0.30
     Davidson diagonalization with overlap
     ethr =  1.82E-05,  avg # of iterations =  6.6

     total cpu time spent up to now is      327.5 secs

     total energy              =    -562.38002536 Ry
     estimated scf accuracy    <       0.10003432 Ry

     iteration # 23     ecut=    60.00 Ry     beta= 0.30
     Davidson diagonalization with overlap
     ethr =  1.82E-05,  avg # of iterations =  7.0

     total cpu time spent up to now is      329.1 secs

     total energy              =    -562.37944607 Ry
     estimated scf accuracy    <       0.03437101 Ry

     iteration # 24     ecut=    60.00 Ry     beta= 0.30
     Davidson diagonalization with overlap
     ethr =  1.82E-05,  avg # of iterations =  3.6

     total cpu time spent up to now is      330.2 secs

     total energy              =    -562.38009422 Ry
     estimated scf accuracy    <       0.02208422 Ry

     iteration # 25     ecut=    60.00 Ry     beta= 0.30
     Davidson diagonalization with overlap
     ethr =  1.82E-05,  avg # of iterations =  1.6

     total cpu time spent up to now is      331.2 secs

     total energy              =    -562.37500549 Ry
     estimated scf accuracy    <       0.01943531 Ry

     iteration # 26     ecut=    60.00 Ry     beta= 0.30
     Davidson diagonalization with overlap
     ethr =  1.82E-05,  avg # of iterations =  6.6

     total cpu time spent up to now is      332.7 secs

     total energy              =    -562.37942292 Ry
     estimated scf accuracy    <       0.00114739 Ry

     iteration # 27     ecut=    60.00 Ry     beta= 0.30
     Davidson diagonalization with overlap
     ethr =  2.87E-06,  avg # of iterations =  6.4

     total cpu time spent up to now is      334.3 secs

     total energy              =    -562.37887398 Ry
     estimated scf accuracy    <       0.00238110 Ry

     iteration # 28     ecut=    60.00 Ry     beta= 0.30
     Davidson diagonalization with overlap
     ethr =  2.87E-06,  avg # of iterations =  7.9

     total cpu time spent up to now is      336.0 secs

     total energy              =    -562.37979884 Ry
     estimated scf accuracy    <       0.00011970 Ry

     iteration # 29     ecut=    60.00 Ry     beta= 0.30
     Davidson diagonalization with overlap
     ethr =  2.99E-07,  avg # of iterations = 10.7

     total cpu time spent up to now is      338.3 secs

     total energy              =    -562.37945931 Ry
     estimated scf accuracy    <       0.00187080 Ry

     iteration # 30     ecut=    60.00 Ry     beta= 0.30
     Davidson diagonalization with overlap
     ethr =  2.99E-07,  avg # of iterations =  7.9

     total cpu time spent up to now is      340.4 secs

     total energy              =    -562.37964349 Ry
     estimated scf accuracy    <       0.00010330 Ry

     iteration # 31     ecut=    60.00 Ry     beta= 0.30
     Davidson diagonalization with overlap
     ethr =  2.58E-07,  avg # of iterations =  8.1

     total cpu time spent up to now is      342.3 secs

     total energy              =    -562.38050612 Ry
     estimated scf accuracy    <       0.00018157 Ry

     iteration # 32     ecut=    60.00 Ry     beta= 0.30
     Davidson diagonalization with overlap
     ethr =  2.58E-07,  avg # of iterations = 13.2

     total cpu time spent up to now is      345.4 secs

     total energy              =    -562.38200289 Ry
     estimated scf accuracy    <       0.00972503 Ry

     iteration # 33     ecut=    60.00 Ry     beta= 0.30
     Davidson diagonalization with overlap
     ethr =  2.58E-07,  avg # of iterations =  2.8

     total cpu time spent up to now is      346.4 secs

     total energy              =    -562.37723459 Ry
     estimated scf accuracy    <       0.01034578 Ry

     iteration # 34     ecut=    60.00 Ry     beta= 0.30
     Davidson diagonalization with overlap
     c_bands:  1 eigenvalues not converged
     c_bands:  2 eigenvalues not converged
     c_bands:  3 eigenvalues not converged
     c_bands:  1 eigenvalues not converged
     c_bands:  1 eigenvalues not converged
     c_bands:  1 eigenvalues not converged
     ethr =  2.58E-07,  avg # of iterations = 16.5

     total cpu time spent up to now is      350.2 secs

     total energy              =    -562.38015639 Ry
     estimated scf accuracy    <       0.00089872 Ry

     iteration # 35     ecut=    60.00 Ry     beta= 0.30
     Davidson diagonalization with overlap
     ethr =  2.58E-07,  avg # of iterations =  8.1

     total cpu time spent up to now is      352.1 secs

     total energy              =    -562.37984899 Ry
     estimated scf accuracy    <       0.00243039 Ry

     iteration # 36     ecut=    60.00 Ry     beta= 0.30
     Davidson diagonalization with overlap
     ethr =  2.58E-07,  avg # of iterations =  6.2

     total cpu time spent up to now is      353.5 secs

     total energy              =    -562.37922667 Ry
     estimated scf accuracy    <       0.00141679 Ry

     iteration # 37     ecut=    60.00 Ry     beta= 0.30
     Davidson diagonalization with overlap
     ethr =  2.58E-07,  avg # of iterations = 11.9

     total cpu time spent up to now is      356.2 secs

     total energy              =    -562.37968506 Ry
     estimated scf accuracy    <       0.00031318 Ry

     iteration # 38     ecut=    60.00 Ry     beta= 0.30
     Davidson diagonalization with overlap
     ethr =  2.58E-07,  avg # of iterations =  1.9

     total cpu time spent up to now is      357.2 secs

     total energy              =    -562.37964386 Ry
     estimated scf accuracy    <       0.00015892 Ry

     iteration # 39     ecut=    60.00 Ry     beta= 0.30
     Davidson diagonalization with overlap
     ethr =  2.58E-07,  avg # of iterations =  6.5

     total cpu time spent up to now is      358.8 secs

     total energy              =    -562.37970506 Ry
     estimated scf accuracy    <       0.00000324 Ry

     iteration # 40     ecut=    60.00 Ry     beta= 0.30
     Davidson diagonalization with overlap
     ethr =  8.09E-09,  avg # of iterations = 10.7

     total cpu time spent up to now is      361.1 secs

     total energy              =    -562.37970331 Ry
     estimated scf accuracy    <       0.00005520 Ry

     iteration # 41     ecut=    60.00 Ry     beta= 0.30
     Davidson diagonalization with overlap
     ethr =  8.09E-09,  avg # of iterations =  7.7

     total cpu time spent up to now is      363.0 secs

     total energy              =    -562.37970263 Ry
     estimated scf accuracy    <       0.00001193 Ry

     iteration # 42     ecut=    60.00 Ry     beta= 0.30
     Davidson diagonalization with overlap
     ethr =  8.09E-09,  avg # of iterations =  6.8

     total cpu time spent up to now is      364.6 secs

     total energy              =    -562.37970462 Ry
     estimated scf accuracy    <       0.00000031 Ry

     iteration # 43     ecut=    60.00 Ry     beta= 0.30
     Davidson diagonalization with overlap
     ethr =  7.83E-10,  avg # of iterations = 11.5

     total cpu time spent up to now is      367.1 secs

     total energy              =    -562.37970564 Ry
     estimated scf accuracy    <       0.00000325 Ry

     iteration # 44     ecut=    60.00 Ry     beta= 0.30
     Davidson diagonalization with overlap
     ethr =  7.83E-10,  avg # of iterations =  1.5

     total cpu time spent up to now is      368.1 secs

     total energy              =    -562.37970502 Ry
     estimated scf accuracy    <       0.00000249 Ry

     iteration # 45     ecut=    60.00 Ry     beta= 0.30
     Davidson diagonalization with overlap
     ethr =  7.83E-10,  avg # of iterations =  7.8

     total cpu time spent up to now is      370.0 secs

     total energy              =    -562.37970521 Ry
     estimated scf accuracy    <       0.00000015 Ry

     iteration # 46     ecut=    60.00 Ry     beta= 0.30
     Davidson diagonalization with overlap
     ethr =  3.74E-10,  avg # of iterations = 10.8

     total cpu time spent up to now is      372.4 secs

     total energy              =    -562.37970534 Ry
     estimated scf accuracy    <       0.00000110 Ry

     iteration # 47     ecut=    60.00 Ry     beta= 0.30
     Davidson diagonalization with overlap
     ethr =  3.74E-10,  avg # of iterations =  3.5

     total cpu time spent up to now is      373.5 secs

     total energy              =    -562.37970524 Ry
     estimated scf accuracy    <       0.00000062 Ry

     iteration # 48     ecut=    60.00 Ry     beta= 0.30
     Davidson diagonalization with overlap
     ethr =  3.74E-10,  avg # of iterations =  6.6

     total cpu time spent up to now is      375.1 secs

     total energy              =    -562.37970531 Ry
     estimated scf accuracy    <       0.00000004 Ry

     iteration # 49     ecut=    60.00 Ry     beta= 0.30
     Davidson diagonalization with overlap
     ethr =  1.01E-10,  avg # of iterations = 10.1

     total cpu time spent up to now is      377.4 secs

     total energy              =    -562.37970534 Ry
     estimated scf accuracy    <       0.00000030 Ry

     iteration # 50     ecut=    60.00 Ry     beta= 0.30
     Davidson diagonalization with overlap
     ethr =  1.01E-10,  avg # of iterations =  6.5

     total cpu time spent up to now is      378.9 secs

     total energy              =    -562.37970535 Ry
     estimated scf accuracy    <       0.00000008 Ry

     iteration # 51     ecut=    60.00 Ry     beta= 0.30
     Davidson diagonalization with overlap
     ethr =  1.01E-10,  avg # of iterations =  2.2

     total cpu time spent up to now is      380.0 secs

     total energy              =    -562.37970535 Ry
     estimated scf accuracy    <       0.00000006 Ry

     iteration # 52     ecut=    60.00 Ry     beta= 0.30
     Davidson diagonalization with overlap
     ethr =  1.01E-10,  avg # of iterations =  2.4

     total cpu time spent up to now is      381.0 secs

     total energy              =    -562.37970535 Ry
     estimated scf accuracy    <       0.00000003 Ry

     iteration # 53     ecut=    60.00 Ry     beta= 0.30
     Davidson diagonalization with overlap
     ethr =  7.67E-11,  avg # of iterations =  1.8

     total cpu time spent up to now is      382.0 secs

     total energy              =    -562.37970535 Ry
     estimated scf accuracy    <       0.00000003 Ry

     iteration # 54     ecut=    60.00 Ry     beta= 0.30
     Davidson diagonalization with overlap
     ethr =  6.91E-11,  avg # of iterations =  2.1

     total cpu time spent up to now is      383.1 secs

     total energy              =    -562.37970535 Ry
     estimated scf accuracy    <       0.00000002 Ry

     iteration # 55     ecut=    60.00 Ry     beta= 0.30
     Davidson diagonalization with overlap
     ethr =  4.41E-11,  avg # of iterations =  2.6

     total cpu time spent up to now is      384.1 secs

     total energy              =    -562.37970535 Ry
     estimated scf accuracy    <       0.00000001 Ry

     iteration # 56     ecut=    60.00 Ry     beta= 0.30
     Davidson diagonalization with overlap
     ethr =  3.26E-11,  avg # of iterations =  6.8

     total cpu time spent up to now is      385.6 secs

     total energy              =    -562.37970535 Ry
     estimated scf accuracy    <          1.4E-10 Ry

     iteration # 57     ecut=    60.00 Ry     beta= 0.30
     Davidson diagonalization with overlap
     c_bands:  3 eigenvalues not converged
     c_bands:  1 eigenvalues not converged
     c_bands:  1 eigenvalues not converged
     c_bands:  4 eigenvalues not converged
     c_bands:  1 eigenvalues not converged
     c_bands:  1 eigenvalues not converged
     ethr =  3.53E-13,  avg # of iterations = 15.6

     total cpu time spent up to now is      388.8 secs

     total energy              =    -562.37970536 Ry
     estimated scf accuracy    <          8.5E-09 Ry

     iteration # 58     ecut=    60.00 Ry     beta= 0.30
     Davidson diagonalization with overlap
     ethr =  3.53E-13,  avg # of iterations = 10.8

     total cpu time spent up to now is      391.1 secs

     total energy              =    -562.37970536 Ry
     estimated scf accuracy    <       0.00000002 Ry

     iteration # 59     ecut=    60.00 Ry     beta= 0.30
     Davidson diagonalization with overlap
     ethr =  3.53E-13,  avg # of iterations =  1.9

     total cpu time spent up to now is      392.1 secs

     total energy              =    -562.37970535 Ry
     estimated scf accuracy    <       0.00000002 Ry

     iteration # 60     ecut=    60.00 Ry     beta= 0.30
     Davidson diagonalization with overlap
     ethr =  3.53E-13,  avg # of iterations = 13.1

     total cpu time spent up to now is      395.1 secs

     total energy              =    -562.37970535 Ry
     estimated scf accuracy    <          9.3E-10 Ry

     iteration # 61     ecut=    60.00 Ry     beta= 0.30
     Davidson diagonalization with overlap
     c_bands:  1 eigenvalues not converged
     ethr =  3.53E-13,  avg # of iterations = 10.0

     total cpu time spent up to now is      397.4 secs

     total energy              =    -562.37970535 Ry
     estimated scf accuracy    <          1.5E-10 Ry

     iteration # 62     ecut=    60.00 Ry     beta= 0.30
     Davidson diagonalization with overlap
     ethr =  3.53E-13,  avg # of iterations =  6.9

     total cpu time spent up to now is      399.0 secs

     total energy              =    -562.37970535 Ry
     estimated scf accuracy    <          7.9E-11 Ry

     iteration # 63     ecut=    60.00 Ry     beta= 0.30
     Davidson diagonalization with overlap
     ethr =  1.97E-13,  avg # of iterations =  1.7

     total cpu time spent up to now is      400.0 secs

     total energy              =    -562.37970535 Ry
     estimated scf accuracy    <          4.7E-11 Ry

     iteration # 64     ecut=    60.00 Ry     beta= 0.30
     Davidson diagonalization with overlap
     ethr =  1.18E-13,  avg # of iterations =  7.6

     total cpu time spent up to now is      401.8 secs

     total energy              =    -562.37970535 Ry
     estimated scf accuracy    <          3.8E-10 Ry

     iteration # 65     ecut=    60.00 Ry     beta= 0.30
     Davidson diagonalization with overlap
     ethr =  1.18E-13,  avg # of iterations = 10.4

     total cpu time spent up to now is      404.2 secs

     total energy              =    -562.37970535 Ry
     estimated scf accuracy    <          6.8E-11 Ry

     iteration # 66     ecut=    60.00 Ry     beta= 0.30
     Davidson diagonalization with overlap
     ethr =  1.18E-13,  avg # of iterations =  9.5

     total cpu time spent up to now is      406.3 secs

     total energy              =    -562.37970535 Ry
     estimated scf accuracy    <          8.4E-10 Ry

     iteration # 67     ecut=    60.00 Ry     beta= 0.30
     Davidson diagonalization with overlap
     ethr =  1.18E-13,  avg # of iterations = 10.6

     total cpu time spent up to now is      408.7 secs

     End of self-consistent calculation

          k = 0.0000 0.0000 0.0000 (  3119 PWs)   bands (ev):

   -46.0676 -22.5273 -22.4562 -22.4562 -22.4562  -7.3493  -6.3386  -6.3386
    -4.5530  -4.5530  -4.5530   7.2021   7.2021   7.2021   8.8370   8.8370
     8.8370   9.7038   9.7038   9.7038

          k = 0.0000 0.0000 0.1252 (  3106 PWs)   bands (ev):

   -46.0673 -22.5503 -22.4558 -22.4558 -22.4407  -7.3548  -6.3408  -6.3324
    -4.5456  -4.5456  -4.4444   6.9918   7.1886   7.1886   8.6260   8.6260
     8.6926   9.2142   9.6026   9.6026

          k = 0.0000 0.0000 0.2505 (  3118 PWs)   bands (ev):

   -46.0668 -22.5917 -22.4546 -22.4546 -22.4171  -7.4204  -6.3174  -6.2507
    -4.5276  -4.5276  -4.2161   6.4634   7.1613   7.1613   8.1791   8.1791
     8.3407   8.3772   9.4563   9.4563

          k = 0.0000 0.0000 0.3757 (  3118 PWs)   bands (ev):

   -46.0662 -22.6264 -22.4535 -22.4535 -22.3998  -7.5285  -6.3022  -6.0700
    -4.5094  -4.5094  -4.0214   5.9001   7.1508   7.1508   7.7139   7.7887
     7.7887   8.0983   9.3561   9.3561

          k = 0.0000 0.0000-0.5009 (  3178 PWs)   bands (ev):

   -46.0660 -22.6399 -22.4530 -22.4530 -22.3936  -7.5786  -6.2959  -5.9774
    -4.5018  -4.5018  -3.9484   5.6572   7.1593   7.1593   7.5001   7.6291
     7.6291   7.9909   9.3205   9.3205

          k = 0.0000 0.1252 0.1252 (  3099 PWs)   bands (ev):

   -46.0671 -22.5604 -22.4672 -22.4553 -22.4264  -7.3420  -6.3589  -6.3205
    -4.5379  -4.4900  -4.4000   6.8454   7.1104   7.1760   8.1872   8.4561
     8.8449   9.0451   9.3302   9.4676

          k = 0.0000 0.1252 0.2505 (  3115 PWs)   bands (ev):

   -46.0665 -22.5882 -22.4708 -22.4542 -22.4119  -7.3661  -6.3357  -6.2664
    -4.5193  -4.4584  -4.2190   6.3977   6.9817   7.1504   7.6022   8.0662
     8.3858   8.8238   9.1561   9.2739

          k = 0.0000 0.1252 0.3757 (  3115 PWs)   bands (ev):

   -46.0659 -22.6173 -22.4669 -22.4530 -22.4036  -7.4459  -6.2896  -6.1371
    -4.5005  -4.4418  -4.0508   5.8804   6.8151   7.1426   7.1639   7.7025
     7.9953   8.6996   9.0249   9.1509

          k = 0.0000 0.1252-0.5009 (  3120 PWs)   bands (ev):

   -46.0657 -22.6293 -22.4645 -22.4525 -22.4009  -7.4877  -6.2744  -6.0604
    -4.4927  -4.4344  -3.9875   5.6478   6.7102   7.0460   7.1544   7.5478
     7.8747   8.6418   8.9752   9.1096

          k = 0.0000 0.2505 0.2505 (  3129 PWs)   bands (ev):

   -46.0659 -22.5849 -22.4935 -22.4530 -22.4108  -7.2668  -6.4021  -6.2210
    -4.4993  -4.3397  -4.1977   6.1512   6.6622   6.9287   7.1274   7.7874
     8.2951   8.6536   8.9787   9.2862

          k = 0.0000 0.2505 0.3757 (  3129 PWs)   bands (ev):

   -46.0654 -22.5932 -22.4965 -22.4519 -22.4173  -7.2351  -6.3542  -6.1931
    -4.4791  -4.3006  -4.1114   5.7986   6.1890   6.6147   7.1211   7.4966
     8.1493   8.5785   8.7863   9.3759

          k = 0.0000 0.2505-0.5009 (  3114 PWs)   bands (ev):

   -46.0651 -22.6000 -22.4919 -22.4514 -22.4223  -7.2433  -6.2509  -6.2376
    -4.4706  -4.2934  -4.0677   5.6214   5.9523   6.5754   7.1389   7.3584
     8.1155   8.5499   8.7236   9.3816

          k = 0.0000 0.3757 0.3757 (  3127 PWs)   bands (ev):

   -46.0648 -22.5666 -22.5196 -22.4508 -22.4397  -7.0086  -6.4389  -6.2286
    -4.4573  -4.1891  -4.1402   5.5577   5.8297   6.0573   7.1045   7.2855
     8.2699   8.4827   8.5241   9.7211

          k = 0.0000 0.3757-0.5009 (  3128 PWs)   bands (ev):

   -46.0645 -22.5597 -22.5192 -22.4549 -22.4504  -6.9204  -6.3929  -6.3182
    -4.4483  -4.1721  -4.1176   5.4505   5.5532   5.9797   7.1171   7.1781
     8.3502   8.4349   8.4476   9.8177

          k = 0.0000-0.5009-0.5009 (  3136 PWs)   bands (ev):

   -46.0643 -22.5304 -22.5304 -22.4809 -22.4499  -6.6866  -6.4526  -6.4526
    -4.4389  -4.1258  -4.1258   5.2753   5.4458   5.7965   7.1057   7.1057
     8.3340   8.4471   8.4471   9.9496

          k = 0.1252 0.1252 0.1252 (  3104 PWs)   bands (ev):

   -46.0668 -22.5654 -22.4667 -22.4667 -22.4173  -7.3164  -6.3434  -6.3434
    -4.4983  -4.4983  -4.3438   6.6947   7.1024   7.1024   8.0829   8.0829
     8.7587   8.9966   9.2808   9.2808

          k = 0.1252 0.1252 0.2505 (  3117 PWs)   bands (ev):

   -46.0663 -22.5842 -22.4737 -22.4655 -22.4090  -7.3078  -6.3142  -6.3048
    -4.5197  -4.4287  -4.2046   6.3158   6.8959   7.0818   7.5915   7.6008
     8.4080   8.9745   9.0236   9.1567

          k = 0.1252 0.1252 0.3757 (  3120 PWs)   bands (ev):

   -46.0657 -22.6086 -22.4684 -22.4643 -22.4070  -7.3625  -6.2648  -6.1856
    -4.5427  -4.3675  -4.0794   5.8603   6.6565   7.0543   7.0991   7.2610
     8.3988   8.7728   8.8180   9.0540

          k = 0.1252 0.1252-0.5009 (  3122 PWs)   bands (ev):

   -46.0655 -22.6194 -22.4642 -22.4638 -22.4075  -7.3967  -6.2477  -6.1113
    -4.5528  -4.3419  -4.0325   5.6401   6.5564   6.9368   7.0300   7.1599
     8.5097   8.5818   8.7370   9.0178

          k = 0.1252 0.2505 0.2505 (  3123 PWs)   bands (ev):

   -46.0657 -22.5791 -22.4929 -22.4669 -22.4106  -7.1965  -6.3676  -6.2426
    -4.5171  -4.3827  -4.1600   6.0809   6.6637   6.9634   6.9854   7.4609
     8.0016   8.9296   8.9464   9.2867

          k = 0.1252 0.2505 0.3757 (  3136 PWs)   bands (ev):

   -46.0651 -22.5858 -22.4961 -22.4648 -22.4198  -7.1499  -6.3185  -6.1927
    -4.5472  -4.3017  -4.1292   5.7857   6.2116   6.6225   6.9324   7.1685
     8.0094   8.7378   8.8734   9.3808

          k = 0.1252 0.2505-0.5009 (  3120 PWs)   bands (ev):

   -46.0649 -22.5923 -22.4914 -22.4628 -22.4267  -7.1522  -6.2326  -6.2095
    -4.5653  -4.2521  -4.1286   5.6188   5.9960   6.5643   6.9323   7.0340
     8.0770   8.6332   8.8429   9.3874

          k = 0.1252 0.3757 0.3757 (  3133 PWs)   bands (ev):

   -46.0646 -22.5610 -22.5190 -22.4634 -22.4407  -6.9202  -6.3895  -6.1945
    -4.5320  -4.2627  -4.1603   5.6102   5.8765   6.0609   6.8824   7.0337
     7.8964   8.7139   8.8002   9.7280

          k = 0.1252 0.3757-0.5009 (  3128 PWs)   bands (ev):

   -46.0643 -22.5554 -22.5186 -22.4617 -22.4557  -6.8289  -6.3504  -6.2609
    -4.5277  -4.2150  -4.1959   5.5580   5.5667   5.9848   6.9065   6.9264
     7.8964   8.7190   8.7706   9.8271

          k = 0.1252-0.5009-0.5009 (  3116 PWs)   bands (ev):

   -46.0641 -22.5298 -22.5298 -22.4780 -22.4612  -6.5858  -6.3980  -6.3980
    -4.5014  -4.2112  -4.2112   5.4166   5.4531   5.7994   6.8893   6.8893
     7.8509   8.7653   8.7653   9.9628

          k = 0.2505 0.2505 0.2505 (  3133 PWs)   bands (ev):

   -46.0651 -22.5672 -22.4916 -22.4916 -22.4165  -7.0423  -6.2774  -6.2774
    -4.4935  -4.4935  -4.1293   5.9271   6.6621   6.6621   7.0188   7.0188
     7.2111   9.0939   9.0939   9.4031

          k = 0.2505 0.2505 0.3757 (  3129 PWs)   bands (ev):

   -46.0645 -22.5664 -22.4976 -22.4903 -22.4298  -6.9336  -6.2599  -6.1743
    -4.6176  -4.3927  -4.1686   5.7524   6.1949   6.5963   6.6134   6.7754
     7.2226   9.0780   9.1941   9.4936

          k = 0.2505 0.2505-0.5009 (  3130 PWs)   bands (ev):

   -46.0643 -22.5714 -22.4905 -22.4898 -22.4394  -6.9093  -6.2287  -6.1264
    -4.6743  -4.2709  -4.2632   5.6102   6.0069   6.4778   6.5490   6.7412
     7.2737   9.0683   9.2141   9.4998

          k = 0.2505 0.3757 0.3757 (  3131 PWs)   bands (ev):

   -46.0640 -22.5462 -22.5176 -22.4912 -22.4466  -6.6955  -6.2547  -6.1213
    -4.6526  -4.4554  -4.2577   5.6828   6.0390   6.0702   6.5208   6.6575
     6.9346   9.2234   9.3111   9.7578

          k = 0.2505 0.3757-0.5009 (  3138 PWs)   bands (ev):

   -46.0637 -22.5444 -22.5172 -22.4889 -22.4583  -6.5911  -6.2385  -6.1180
    -4.6863  -4.3952  -4.3571   5.5646   5.8428   5.9977   6.5235   6.5825
     6.9316   9.2723   9.3324   9.8551

          k = 0.2505-0.5009-0.5009 (  3136 PWs)   bands (ev):

   -46.0635 -22.5284 -22.5284 -22.4884 -22.4709  -6.3319  -6.2468  -6.2468
    -4.6470  -4.4357  -4.4357   5.4624   5.7573   5.8058   6.5529   6.5529
     6.8596   9.3533   9.3533   9.9946

          k = 0.3757 0.3757 0.3757 (  3130 PWs)   bands (ev):

   -46.0634 -22.5304 -22.5162 -22.5162 -22.4560  -6.4376  -6.0855  -6.0855
    -4.6819  -4.6819  -4.4221   5.6695   6.0818   6.0818   6.1682   6.3997
     6.3997   9.6241   9.6241   9.8452

          k = 0.3757 0.3757-0.5009 (  3124 PWs)   bands (ev):

   -46.0632 -22.5324 -22.5160 -22.5156 -22.4619  -6.2954  -6.1097  -5.9976
    -4.7933  -4.6111  -4.5627   5.5259   5.9713   6.0813   6.0886   6.3091
     6.4254   9.6883   9.7685   9.9216

          k = 0.3757-0.5009-0.5009 (  3136 PWs)   bands (ev):

   -46.0629 -22.5269 -22.5269 -22.5152 -22.4639  -6.0604  -6.0499  -6.0499
    -4.7861  -4.7045  -4.7045   5.4218   5.8123   6.0523   6.0988   6.3208
     6.3208   9.8480   9.8480  10.0271

          k =-0.5009-0.5009-0.5009 (  3112 PWs)   bands (ev):

   -46.0627 -22.5263 -22.5263 -22.5263 -22.4609  -5.9419  -5.9419  -5.9419
    -4.8419  -4.8419  -4.8419   5.3313   5.8152   5.8152   6.2409   6.2409
     6.2409  10.0408  10.0408  10.0408

     highest occupied level (ev):    10.0408

!    total energy              =    -562.37970535 Ry

     total all-electron energy =     -8511.839925 Ry
     estimated scf accuracy    <          4.7E-13 Ry

     The total energy is the sum of the following terms:
     one-electron contribution =     -71.53616751 Ry
     hartree contribution      =      60.26749622 Ry
     xc contribution           =     -58.93325309 Ry
     ewald contribution        =    -213.16037567 Ry
     one-center paw contrib.   =    -279.01740530 Ry

     convergence has been achieved in  67 iterations

     Forces acting on atoms (cartesian axes, Ry/au):

     atom    1 type  1   force =     0.00000000    0.00000000    0.00000000
     atom    2 type  2   force =     0.00000000    0.00000000    0.00000000
     atom    3 type  3   force =     0.00000000    0.00000000    0.00000000
     atom    4 type  3   force =     0.00000000    0.00000000    0.00000000
     atom    5 type  3   force =     0.00000000    0.00000000    0.00000000

     Total force =     0.000000     Total SCF correction =     0.000000


     Computing stress (Cartesian axis) and pressure

          total   stress  (Ry/bohr**3)                   (kbar)     P=       -0.00
  -0.00000002   0.00000000   0.00000000           -0.00        0.00        0.00
   0.00000000  -0.00000002   0.00000000            0.00       -0.00        0.00
   0.00000000   0.00000000  -0.00000002            0.00        0.00       -0.00


     Writing output data file ./tmp/SrTiO3_pbesol.save/

     init_run     :      3.71s CPU      3.79s WALL (       2 calls)
     electrons    :    385.43s CPU    392.49s WALL (       4 calls)
     update_pot   :      2.78s CPU      2.78s WALL (       2 calls)
     forces       :      3.53s CPU      3.54s WALL (       4 calls)
     stress       :      8.22s CPU      8.23s WALL (       4 calls)

     Called by init_run:
     wfcinit      :      0.82s CPU      0.83s WALL (       2 calls)
     potinit      :      0.85s CPU      0.86s WALL (       2 calls)
     hinit0       :      1.81s CPU      1.83s WALL (       2 calls)

     Called by electrons:
     c_bands      :    311.67s CPU    317.69s WALL (     238 calls)
     sum_band     :     36.42s CPU     37.09s WALL (     238 calls)
     v_of_rho     :      2.20s CPU      2.29s WALL (     241 calls)
     newd         :     11.66s CPU     11.72s WALL (     241 calls)
     PAW_pot      :     23.43s CPU     23.64s WALL (     243 calls)
     mix_rho      :      0.45s CPU      0.48s WALL (     238 calls)

     Called by c_bands:
     init_us_2    :      3.13s CPU      3.17s WALL (   17080 calls)
     cegterg      :    301.99s CPU    307.91s WALL (    8348 calls)

     Called by *egterg:
     cdiaghg      :     40.38s CPU     41.27s WALL (   57752 calls)
     h_psi        :    144.88s CPU    148.74s WALL (   57927 calls)
     s_psi        :     27.50s CPU     27.72s WALL (   57927 calls)
     g_psi        :      1.13s CPU      1.14s WALL (   49509 calls)

     Called by h_psi:
     h_psi:calbec :     25.73s CPU     26.62s WALL (   57927 calls)
     vloc_psi     :     91.26s CPU     93.92s WALL (   57927 calls)
     add_vuspsi   :     27.06s CPU     27.38s WALL (   57927 calls)

     General routines
     calbec       :     33.27s CPU     34.39s WALL (   67027 calls)
     fft          :      1.58s CPU      1.68s WALL (    3228 calls)
     ffts         :      0.07s CPU      0.08s WALL (     479 calls)
     fftw         :     90.77s CPU     93.38s WALL ( 1365148 calls)
     interpolate  :      0.18s CPU      0.18s WALL (     241 calls)

     Parallel routines
     fft_scatt_xy :     11.74s CPU     12.10s WALL ( 1368855 calls)
     fft_scatt_yz :     22.15s CPU     22.84s WALL ( 1368855 calls)

     PWSCF        :   6m44.51s CPU   6m51.72s WALL


   This run was terminated on:  21:16:11  15Jul2026            

=------------------------------------------------------------------------------=
   JOB DONE.
=------------------------------------------------------------------------------=
