
     Program PWSCF v.6.7MaX starts on 18Jul2026 at 11:20:17 

     This program is part of the open-source Quantum ESPRESSO suite
     for quantum simulation of materials; please cite
         "P. Giannozzi et al., J. Phys.:Condens. Matter 21 395502 (2009);
         "P. Giannozzi et al., J. Phys.:Condens. Matter 29 465901 (2017);
          URL http://www.quantum-espresso.org", 
     in publications or presentations arising from this work. More details at
     http://www.quantum-espresso.org/quote

     Parallel version (MPI), running on     8 processors

     MPI processes distributed on     1 nodes
     R & G space division:  proc/nbgrp/npool/nimage =       8
     Reading input from scf.in

     Current dimensions of program PWSCF are:
     Max number of different atomic species (ntypx) = 10
     Max number of k-points (npk) =  40000
     Max angular momentum in pseudopotentials (lmaxx) =  3
     file Sr.pbesol-spn-kjpaw_psl.1.0.0.UPF: wavefunction(s)  4P renormalized
     file Ti.pbesol-spn-kjpaw_psl.1.0.0.UPF: wavefunction(s)  3S 3P 3D renormalized
     file O.pbesol-n-kjpaw_psl.1.0.0.UPF: wavefunction(s)  2S 2P renormalized

     Subspace diagonalization in iterative solution of the eigenvalue problem:
     one sub-group per band group will be used
     scalapack distributed-memory algorithm (size of sub-group:  2*  2 procs)

     Message from routine setup:
     using ibrav=0 with symmetry is DISCOURAGED, use correct ibrav instead

     Parallelization info
     --------------------
     sticks:   dense  smooth     PW     G-vecs:    dense   smooth      PW
     Min         258     129     37                 8844     3131     509
     Max         259     131     38                 8847     3132     512
     Sum        2065    1041    303                70755    25053    4081



     bravais-lattice index     =            0
     lattice parameter (alat)  =       7.3568  a.u.
     unit-cell volume          =     398.1511 (a.u.)^3
     number of atoms/cell      =            5
     number of atomic types    =            3
     number of electrons       =        40.00
     number of Kohn-Sham states=           20
     kinetic-energy cutoff     =      60.0000  Ry
     charge density cutoff     =     480.0000  Ry
     scf convergence threshold =      1.0E-12
     mixing beta               =       0.3000
     number of iterations used =            8  plain     mixing
     Exchange-correlation= SLA  PW   PSX  PSC
                           (   1   4  10   8   0   0   0)

     celldm(1)=   7.356846  celldm(2)=   0.000000  celldm(3)=   0.000000
     celldm(4)=   0.000000  celldm(5)=   0.000000  celldm(6)=   0.000000

     crystal axes: (cart. coord. in units of alat)
               a(1) = (   0.999988  -0.005000   0.000000 )  
               a(2) = (  -0.005000   0.999988   0.000000 )  
               a(3) = (   0.000000   0.000000   0.999988 )  

     reciprocal axes: (cart. coord. in units 2 pi/alat)
               b(1) = (  1.000038  0.005000 -0.000000 )  
               b(2) = (  0.005000  1.000038 -0.000000 )  
               b(3) = ( -0.000000 -0.000000  1.000012 )  


     PseudoPot. # 1 for Sr read from file:
     ./pseudo/Sr.pbesol-spn-kjpaw_psl.1.0.0.UPF
     MD5 check sum: 5f6d651ace59fc2f5ab95f6a3abc31cb
     Pseudo is Projector augmented-wave + core cor, Zval = 10.0
     Generated using &quot;atomic&quot; code by A. Dal Corso  v.6.2.2
     Shape of augmentation charge: PSQ
     Using radial grid of 1221 points,  6 beta functions with: 
                l(1) =   0
                l(2) =   0
                l(3) =   1
                l(4) =   1
                l(5) =   2
                l(6) =   2
     Q(r) pseudized with 0 coefficients 


     PseudoPot. # 2 for Ti read from file:
     ./pseudo/Ti.pbesol-spn-kjpaw_psl.1.0.0.UPF
     MD5 check sum: 37a32a5821746b2d50d64995a8e5b789
     Pseudo is Projector augmented-wave + core cor, Zval = 12.0
     Generated using &quot;atomic&quot; code by A. Dal Corso  v.6.2.2
     Shape of augmentation charge: PSQ
     Using radial grid of 1177 points,  6 beta functions with: 
                l(1) =   0
                l(2) =   0
                l(3) =   1
                l(4) =   1
                l(5) =   2
                l(6) =   2
     Q(r) pseudized with 0 coefficients 


     PseudoPot. # 3 for O  read from file:
     ./pseudo/O.pbesol-n-kjpaw_psl.1.0.0.UPF
     MD5 check sum: cb766521a97cf798d01896eaf7ac9a0a
     Pseudo is Projector augmented-wave + core cor, Zval =  6.0
     Generated using &quot;atomic&quot; code by A. Dal Corso  v.6.3
     Shape of augmentation charge: PSQ
     Using radial grid of 1095 points,  4 beta functions with: 
                l(1) =   0
                l(2) =   0
                l(3) =   1
                l(4) =   1
     Q(r) pseudized with 0 coefficients 


     atomic species   valence    mass     pseudopotential
        Sr            10.00    87.62000     Sr( 1.00)
        Ti            12.00    47.86700     Ti( 1.00)
        O              6.00    15.99900     O ( 1.00)

      8 Sym. Ops., with inversion, found



   Cartesian axes

     site n.     atom                  positions (alat units)
         1           Sr  tau(   1) = (   0.0000000   0.0000000   0.0000000  )
         2           Ti  tau(   2) = (   0.4974938   0.4974938   0.4999938  )
         3           O   tau(   3) = (   0.4974938   0.4974938   0.0000000  )
         4           O   tau(   4) = (   0.4999938  -0.0025000   0.4999938  )
         5           O   tau(   5) = (  -0.0025000   0.4999938   0.4999938  )

     number of k points=   105

     Number of k-points >= 100: set verbosity='high' to print them.

     Dense  grid:    70755 G-vectors     FFT dimensions: (  54,  54,  54)

     Smooth grid:    25053 G-vectors     FFT dimensions: (  40,  40,  40)

     Estimated max dynamical RAM per process >      50.96 MB

     Estimated total dynamical RAM >     407.65 MB

     Check: negative core charge=   -0.000002

     Initial potential from superposition of free atoms

     starting charge   39.99155, renormalised to   40.00000
     Starting wfcs are   30 randomized atomic wfcs
     Checking if some PAW data can be deallocated... 

     total cpu time spent up to now is        2.5 secs

     Self-consistent Calculation

     iteration #  1     ecut=    60.00 Ry     beta= 0.30
     Davidson diagonalization with overlap
     ethr =  1.00E-02,  avg # of iterations =  1.0

     total cpu time spent up to now is        5.0 secs

     total energy              =    -561.77885609 Ry
     estimated scf accuracy    <       2.02872767 Ry

     iteration #  2     ecut=    60.00 Ry     beta= 0.30
     Davidson diagonalization with overlap
     ethr =  5.07E-03,  avg # of iterations =  2.1

     total cpu time spent up to now is        8.3 secs

     total energy              =    -562.10033930 Ry
     estimated scf accuracy    <       0.20513020 Ry

     iteration #  3     ecut=    60.00 Ry     beta= 0.30
     Davidson diagonalization with overlap
     c_bands:  2 eigenvalues not converged
     ethr =  5.13E-04,  avg # of iterations = 13.4

     total cpu time spent up to now is       17.1 secs

     total energy              =    -562.35482498 Ry
     estimated scf accuracy    <       1.81383116 Ry

     iteration #  4     ecut=    60.00 Ry     beta= 0.30
     Davidson diagonalization with overlap
     ethr =  5.13E-04,  avg # of iterations =  2.0

     total cpu time spent up to now is       20.0 secs

     total energy              =    -561.55541392 Ry
     estimated scf accuracy    <       1.22142191 Ry

     iteration #  5     ecut=    60.00 Ry     beta= 0.30
     Davidson diagonalization with overlap
     ethr =  5.13E-04,  avg # of iterations =  9.4

     total cpu time spent up to now is       26.9 secs

     total energy              =    -562.59473624 Ry
     estimated scf accuracy    <       1.72193343 Ry

     iteration #  6     ecut=    60.00 Ry     beta= 0.30
     Davidson diagonalization with overlap
     ethr =  5.13E-04,  avg # of iterations =  2.0

     total cpu time spent up to now is       29.9 secs

     total energy              =    -562.34608097 Ry
     estimated scf accuracy    <       1.12758168 Ry

     iteration #  7     ecut=    60.00 Ry     beta= 0.30
     Davidson diagonalization with overlap
     ethr =  5.13E-04,  avg # of iterations =  5.2

     total cpu time spent up to now is       33.9 secs

     total energy              =    -562.41477849 Ry
     estimated scf accuracy    <       0.37302268 Ry

     iteration #  8     ecut=    60.00 Ry     beta= 0.30
     Davidson diagonalization with overlap
     ethr =  5.13E-04,  avg # of iterations =  1.9

     total cpu time spent up to now is       36.8 secs

     total energy              =    -562.33387088 Ry
     estimated scf accuracy    <       0.32803170 Ry

     iteration #  9     ecut=    60.00 Ry     beta= 0.30
     Davidson diagonalization with overlap
     ethr =  5.13E-04,  avg # of iterations =  2.3

     total cpu time spent up to now is       39.8 secs

     total energy              =    -562.30446634 Ry
     estimated scf accuracy    <       0.14116283 Ry

     iteration # 10     ecut=    60.00 Ry     beta= 0.30
     Davidson diagonalization with overlap
     ethr =  3.53E-04,  avg # of iterations =  6.8

     total cpu time spent up to now is       44.2 secs

     total energy              =    -562.36892323 Ry
     estimated scf accuracy    <       0.00580591 Ry

     iteration # 11     ecut=    60.00 Ry     beta= 0.30
     Davidson diagonalization with overlap
     c_bands:  4 eigenvalues not converged
     c_bands:  1 eigenvalues not converged
     c_bands:  1 eigenvalues not converged
     c_bands:  2 eigenvalues not converged
     ethr =  1.45E-05,  avg # of iterations = 11.5

     total cpu time spent up to now is       51.5 secs

     total energy              =    -562.37048383 Ry
     estimated scf accuracy    <       0.05014353 Ry

     iteration # 12     ecut=    60.00 Ry     beta= 0.30
     Davidson diagonalization with overlap
     ethr =  1.45E-05,  avg # of iterations =  8.0

     total cpu time spent up to now is       57.7 secs

     total energy              =    -562.38054762 Ry
     estimated scf accuracy    <       0.00455270 Ry

     iteration # 13     ecut=    60.00 Ry     beta= 0.30
     Davidson diagonalization with overlap
     ethr =  1.14E-05,  avg # of iterations =  3.8

     total cpu time spent up to now is       61.0 secs

     total energy              =    -562.37969493 Ry
     estimated scf accuracy    <       0.00479417 Ry

     iteration # 14     ecut=    60.00 Ry     beta= 0.30
     Davidson diagonalization with overlap
     ethr =  1.14E-05,  avg # of iterations =  4.8

     total cpu time spent up to now is       65.0 secs

     total energy              =    -562.38123427 Ry
     estimated scf accuracy    <       0.00541707 Ry

     iteration # 15     ecut=    60.00 Ry     beta= 0.30
     Davidson diagonalization with overlap
     ethr =  1.14E-05,  avg # of iterations =  2.0

     total cpu time spent up to now is       67.9 secs

     total energy              =    -562.38047021 Ry
     estimated scf accuracy    <       0.00653511 Ry

     iteration # 16     ecut=    60.00 Ry     beta= 0.30
     Davidson diagonalization with overlap
     ethr =  1.14E-05,  avg # of iterations =  1.0

     total cpu time spent up to now is       70.4 secs

     total energy              =    -562.38154198 Ry
     estimated scf accuracy    <       0.00513782 Ry

     iteration # 17     ecut=    60.00 Ry     beta= 0.30
     Davidson diagonalization with overlap
     ethr =  1.14E-05,  avg # of iterations =  1.4

     total cpu time spent up to now is       73.1 secs

     total energy              =    -562.37988306 Ry
     estimated scf accuracy    <       0.00738150 Ry

     iteration # 18     ecut=    60.00 Ry     beta= 0.30
     Davidson diagonalization with overlap
     ethr =  1.14E-05,  avg # of iterations =  1.0

     total cpu time spent up to now is       75.6 secs

     total energy              =    -562.37873643 Ry
     estimated scf accuracy    <       0.00472347 Ry

     iteration # 19     ecut=    60.00 Ry     beta= 0.30
     Davidson diagonalization with overlap
     ethr =  1.14E-05,  avg # of iterations =  2.5

     total cpu time spent up to now is       78.7 secs

     total energy              =    -562.37878353 Ry
     estimated scf accuracy    <       0.00143947 Ry

     iteration # 20     ecut=    60.00 Ry     beta= 0.30
     Davidson diagonalization with overlap
     ethr =  3.60E-06,  avg # of iterations =  6.7

     total cpu time spent up to now is       83.1 secs

     total energy              =    -562.37945734 Ry
     estimated scf accuracy    <       0.00004712 Ry

     iteration # 21     ecut=    60.00 Ry     beta= 0.30
     Davidson diagonalization with overlap
     ethr =  1.18E-07,  avg # of iterations = 12.1

     total cpu time spent up to now is       91.2 secs

     total energy              =    -562.37955735 Ry
     estimated scf accuracy    <       0.00049353 Ry

     iteration # 22     ecut=    60.00 Ry     beta= 0.30
     Davidson diagonalization with overlap
     ethr =  1.18E-07,  avg # of iterations =  4.5

     total cpu time spent up to now is       94.7 secs

     total energy              =    -562.37948294 Ry
     estimated scf accuracy    <       0.00027549 Ry

     iteration # 23     ecut=    60.00 Ry     beta= 0.30
     Davidson diagonalization with overlap
     ethr =  1.18E-07,  avg # of iterations =  9.2

     total cpu time spent up to now is      101.2 secs

     total energy              =    -562.37955808 Ry
     estimated scf accuracy    <       0.00003565 Ry

     iteration # 24     ecut=    60.00 Ry     beta= 0.30
     Davidson diagonalization with overlap
     ethr =  8.91E-08,  avg # of iterations =  1.3

     total cpu time spent up to now is      103.8 secs

     total energy              =    -562.37956895 Ry
     estimated scf accuracy    <       0.00002993 Ry

     iteration # 25     ecut=    60.00 Ry     beta= 0.30
     Davidson diagonalization with overlap
     ethr =  7.48E-08,  avg # of iterations =  4.4

     total cpu time spent up to now is      107.4 secs

     total energy              =    -562.37956893 Ry
     estimated scf accuracy    <       0.00006914 Ry

     iteration # 26     ecut=    60.00 Ry     beta= 0.30
     Davidson diagonalization with overlap
     ethr =  7.48E-08,  avg # of iterations =  3.9

     total cpu time spent up to now is      111.0 secs

     total energy              =    -562.37959641 Ry
     estimated scf accuracy    <       0.00008051 Ry

     iteration # 27     ecut=    60.00 Ry     beta= 0.30
     Davidson diagonalization with overlap
     ethr =  7.48E-08,  avg # of iterations =  6.6

     total cpu time spent up to now is      116.0 secs

     total energy              =    -562.37944108 Ry
     estimated scf accuracy    <       0.00027041 Ry

     iteration # 28     ecut=    60.00 Ry     beta= 0.30
     Davidson diagonalization with overlap
     ethr =  7.48E-08,  avg # of iterations = 11.6

     total cpu time spent up to now is      124.3 secs

     total energy              =    -562.37944894 Ry
     estimated scf accuracy    <       0.00026238 Ry

     iteration # 29     ecut=    60.00 Ry     beta= 0.30
     Davidson diagonalization with overlap
     ethr =  7.48E-08,  avg # of iterations = 11.4

     total cpu time spent up to now is      132.3 secs

     total energy              =    -562.37950385 Ry
     estimated scf accuracy    <       0.00015592 Ry

     iteration # 30     ecut=    60.00 Ry     beta= 0.30
     Davidson diagonalization with overlap
     ethr =  7.48E-08,  avg # of iterations =  8.1

     total cpu time spent up to now is      138.6 secs

     total energy              =    -562.37954983 Ry
     estimated scf accuracy    <       0.00001465 Ry

     iteration # 31     ecut=    60.00 Ry     beta= 0.30
     Davidson diagonalization with overlap
     ethr =  3.66E-08,  avg # of iterations =  2.0

     total cpu time spent up to now is      141.4 secs

     total energy              =    -562.37954774 Ry
     estimated scf accuracy    <       0.00000892 Ry

     iteration # 32     ecut=    60.00 Ry     beta= 0.30
     Davidson diagonalization with overlap
     ethr =  2.23E-08,  avg # of iterations =  3.9

     total cpu time spent up to now is      144.8 secs

     total energy              =    -562.37954957 Ry
     estimated scf accuracy    <       0.00000150 Ry

     iteration # 33     ecut=    60.00 Ry     beta= 0.30
     Davidson diagonalization with overlap
     ethr =  3.76E-09,  avg # of iterations =  6.2

     total cpu time spent up to now is      149.0 secs

     total energy              =    -562.37954946 Ry
     estimated scf accuracy    <       0.00000271 Ry

     iteration # 34     ecut=    60.00 Ry     beta= 0.30
     Davidson diagonalization with overlap
     ethr =  3.76E-09,  avg # of iterations =  2.8

     total cpu time spent up to now is      152.0 secs

     total energy              =    -562.37954883 Ry
     estimated scf accuracy    <       0.00000117 Ry

     iteration # 35     ecut=    60.00 Ry     beta= 0.30
     Davidson diagonalization with overlap
     ethr =  2.92E-09,  avg # of iterations =  8.4

     total cpu time spent up to now is      158.1 secs

     total energy              =    -562.37954903 Ry
     estimated scf accuracy    <       0.00000259 Ry

     iteration # 36     ecut=    60.00 Ry     beta= 0.30
     Davidson diagonalization with overlap
     ethr =  2.92E-09,  avg # of iterations =  7.4

     total cpu time spent up to now is      163.3 secs

     total energy              =    -562.37954977 Ry
     estimated scf accuracy    <       0.00000010 Ry

     iteration # 37     ecut=    60.00 Ry     beta= 0.30
     Davidson diagonalization with overlap
     ethr =  2.56E-10,  avg # of iterations =  8.5

     total cpu time spent up to now is      168.9 secs

     total energy              =    -562.37954967 Ry
     estimated scf accuracy    <       0.00000064 Ry

     iteration # 38     ecut=    60.00 Ry     beta= 0.30
     Davidson diagonalization with overlap
     ethr =  2.56E-10,  avg # of iterations =  7.7

     total cpu time spent up to now is      174.5 secs

     total energy              =    -562.37954974 Ry
     estimated scf accuracy    <       0.00000002 Ry

     iteration # 39     ecut=    60.00 Ry     beta= 0.30
     Davidson diagonalization with overlap
     ethr =  4.17E-11,  avg # of iterations = 10.2

     total cpu time spent up to now is      181.4 secs

     total energy              =    -562.37954978 Ry
     estimated scf accuracy    <       0.00000006 Ry

     iteration # 40     ecut=    60.00 Ry     beta= 0.30
     Davidson diagonalization with overlap
     ethr =  4.17E-11,  avg # of iterations =  1.6

     total cpu time spent up to now is      184.2 secs

     total energy              =    -562.37954974 Ry
     estimated scf accuracy    <       0.00000006 Ry

     iteration # 41     ecut=    60.00 Ry     beta= 0.30
     Davidson diagonalization with overlap
     ethr =  4.17E-11,  avg # of iterations =  8.6

     total cpu time spent up to now is      190.7 secs

     total energy              =    -562.37954976 Ry
     estimated scf accuracy    <       0.00000002 Ry

     iteration # 42     ecut=    60.00 Ry     beta= 0.30
     Davidson diagonalization with overlap
     ethr =  4.04E-11,  avg # of iterations =  1.3

     total cpu time spent up to now is      193.3 secs

     total energy              =    -562.37954976 Ry
     estimated scf accuracy    <          6.1E-09 Ry

     iteration # 43     ecut=    60.00 Ry     beta= 0.30
     Davidson diagonalization with overlap
     ethr =  1.53E-11,  avg # of iterations =  7.7

     total cpu time spent up to now is      199.1 secs

     total energy              =    -562.37954976 Ry
     estimated scf accuracy    <          6.7E-09 Ry

     iteration # 44     ecut=    60.00 Ry     beta= 0.30
     Davidson diagonalization with overlap
     ethr =  1.53E-11,  avg # of iterations =  1.6

     total cpu time spent up to now is      201.8 secs

     total energy              =    -562.37954976 Ry
     estimated scf accuracy    <          1.8E-09 Ry

     iteration # 45     ecut=    60.00 Ry     beta= 0.30
     Davidson diagonalization with overlap
     ethr =  4.59E-12,  avg # of iterations =  8.4

     total cpu time spent up to now is      207.4 secs

     total energy              =    -562.37954976 Ry
     estimated scf accuracy    <          1.6E-09 Ry

     iteration # 46     ecut=    60.00 Ry     beta= 0.30
     Davidson diagonalization with overlap
     ethr =  4.06E-12,  avg # of iterations =  1.3

     total cpu time spent up to now is      210.1 secs

     total energy              =    -562.37954976 Ry
     estimated scf accuracy    <          1.7E-09 Ry

     iteration # 47     ecut=    60.00 Ry     beta= 0.30
     Davidson diagonalization with overlap
     ethr =  4.06E-12,  avg # of iterations =  1.0

     total cpu time spent up to now is      212.6 secs

     total energy              =    -562.37954976 Ry
     estimated scf accuracy    <          1.4E-09 Ry

     iteration # 48     ecut=    60.00 Ry     beta= 0.30
     Davidson diagonalization with overlap
     ethr =  3.48E-12,  avg # of iterations =  1.0

     total cpu time spent up to now is      215.1 secs

     total energy              =    -562.37954976 Ry
     estimated scf accuracy    <          1.5E-09 Ry

     iteration # 49     ecut=    60.00 Ry     beta= 0.30
     Davidson diagonalization with overlap
     ethr =  3.48E-12,  avg # of iterations =  1.0

     total cpu time spent up to now is      217.7 secs

     total energy              =    -562.37954976 Ry
     estimated scf accuracy    <          1.4E-09 Ry

     iteration # 50     ecut=    60.00 Ry     beta= 0.30
     Davidson diagonalization with overlap
     ethr =  3.47E-12,  avg # of iterations =  1.0

     total cpu time spent up to now is      220.2 secs

     total energy              =    -562.37954976 Ry
     estimated scf accuracy    <          1.2E-09 Ry

     iteration # 51     ecut=    60.00 Ry     beta= 0.30
     Davidson diagonalization with overlap
     ethr =  3.00E-12,  avg # of iterations =  1.0

     total cpu time spent up to now is      222.7 secs

     total energy              =    -562.37954976 Ry
     estimated scf accuracy    <          1.2E-09 Ry

     iteration # 52     ecut=    60.00 Ry     beta= 0.30
     Davidson diagonalization with overlap
     ethr =  2.99E-12,  avg # of iterations =  2.9

     total cpu time spent up to now is      225.7 secs

     total energy              =    -562.37954976 Ry
     estimated scf accuracy    <          2.2E-10 Ry

     iteration # 53     ecut=    60.00 Ry     beta= 0.30
     Davidson diagonalization with overlap
     ethr =  5.50E-13,  avg # of iterations =  4.6

     total cpu time spent up to now is      229.8 secs

     total energy              =    -562.37954976 Ry
     estimated scf accuracy    <          6.8E-10 Ry

     iteration # 54     ecut=    60.00 Ry     beta= 0.30
     Davidson diagonalization with overlap
     c_bands:  2 eigenvalues not converged
     c_bands:  1 eigenvalues not converged
     ethr =  5.50E-13,  avg # of iterations = 14.7

     total cpu time spent up to now is      240.4 secs

     total energy              =    -562.37954976 Ry
     estimated scf accuracy    <       0.00000001 Ry

     iteration # 55     ecut=    60.00 Ry     beta= 0.30
     Davidson diagonalization with overlap
     ethr =  5.50E-13,  avg # of iterations = 12.1

     total cpu time spent up to now is      249.0 secs

     total energy              =    -562.37954976 Ry
     estimated scf accuracy    <          4.3E-10 Ry

     iteration # 56     ecut=    60.00 Ry     beta= 0.30
     Davidson diagonalization with overlap
     ethr =  5.50E-13,  avg # of iterations =  2.9

     total cpu time spent up to now is      252.0 secs

     total energy              =    -562.37954976 Ry
     estimated scf accuracy    <          2.9E-10 Ry

     iteration # 57     ecut=    60.00 Ry     beta= 0.30
     Davidson diagonalization with overlap
     ethr =  5.50E-13,  avg # of iterations =  2.1

     total cpu time spent up to now is      254.9 secs

     total energy              =    -562.37954976 Ry
     estimated scf accuracy    <          1.8E-10 Ry

     iteration # 58     ecut=    60.00 Ry     beta= 0.30
     Davidson diagonalization with overlap
     ethr =  4.40E-13,  avg # of iterations =  1.7

     total cpu time spent up to now is      257.7 secs

     total energy              =    -562.37954976 Ry
     estimated scf accuracy    <          1.4E-10 Ry

     iteration # 59     ecut=    60.00 Ry     beta= 0.30
     Davidson diagonalization with overlap
     ethr =  3.61E-13,  avg # of iterations =  1.3

     total cpu time spent up to now is      260.4 secs

     total energy              =    -562.37954976 Ry
     estimated scf accuracy    <          1.6E-10 Ry

     iteration # 60     ecut=    60.00 Ry     beta= 0.30
     Davidson diagonalization with overlap
     ethr =  3.61E-13,  avg # of iterations =  1.7

     total cpu time spent up to now is      263.1 secs

     total energy              =    -562.37954976 Ry
     estimated scf accuracy    <          1.1E-10 Ry

     iteration # 61     ecut=    60.00 Ry     beta= 0.30
     Davidson diagonalization with overlap
     ethr =  2.78E-13,  avg # of iterations =  7.7

     total cpu time spent up to now is      268.8 secs

     total energy              =    -562.37954976 Ry
     estimated scf accuracy    <          1.4E-10 Ry

     iteration # 62     ecut=    60.00 Ry     beta= 0.30
     Davidson diagonalization with overlap
     ethr =  2.78E-13,  avg # of iterations =  1.2

     total cpu time spent up to now is      271.4 secs

     total energy              =    -562.37954976 Ry
     estimated scf accuracy    <          1.0E-10 Ry

     iteration # 63     ecut=    60.00 Ry     beta= 0.30
     Davidson diagonalization with overlap
     ethr =  2.60E-13,  avg # of iterations =  2.0

     total cpu time spent up to now is      274.3 secs

     total energy              =    -562.37954976 Ry
     estimated scf accuracy    <          4.8E-11 Ry

     iteration # 64     ecut=    60.00 Ry     beta= 0.30
     Davidson diagonalization with overlap
     ethr =  1.19E-13,  avg # of iterations =  6.1

     total cpu time spent up to now is      278.7 secs

     total energy              =    -562.37954976 Ry
     estimated scf accuracy    <          7.6E-12 Ry

     iteration # 65     ecut=    60.00 Ry     beta= 0.30
     Davidson diagonalization with overlap
     ethr =  1.00E-13,  avg # of iterations =  1.1

     total cpu time spent up to now is      281.3 secs

     total energy              =    -562.37954976 Ry
     estimated scf accuracy    <          2.7E-12 Ry

     iteration # 66     ecut=    60.00 Ry     beta= 0.30
     Davidson diagonalization with overlap
     ethr =  1.00E-13,  avg # of iterations =  7.9

     total cpu time spent up to now is      287.6 secs

     total energy              =    -562.37954976 Ry
     estimated scf accuracy    <          2.0E-10 Ry

     iteration # 67     ecut=    60.00 Ry     beta= 0.30
     Davidson diagonalization with overlap
     ethr =  1.00E-13,  avg # of iterations =  8.4

     total cpu time spent up to now is      294.1 secs

     total energy              =    -562.37954976 Ry
     estimated scf accuracy    <          1.0E-09 Ry

     iteration # 68     ecut=    60.00 Ry     beta= 0.30
     Davidson diagonalization with overlap
     ethr =  1.00E-13,  avg # of iterations =  2.6

     total cpu time spent up to now is      297.3 secs

     total energy              =    -562.37954976 Ry
     estimated scf accuracy    <          8.0E-10 Ry

     iteration # 69     ecut=    60.00 Ry     beta= 0.30
     Davidson diagonalization with overlap
     ethr =  1.00E-13,  avg # of iterations =  1.5

     total cpu time spent up to now is      299.9 secs

     total energy              =    -562.37954976 Ry
     estimated scf accuracy    <          9.5E-10 Ry

     iteration # 70     ecut=    60.00 Ry     beta= 0.30
     Davidson diagonalization with overlap
     ethr =  1.00E-13,  avg # of iterations =  1.5

     total cpu time spent up to now is      302.6 secs

     total energy              =    -562.37954976 Ry
     estimated scf accuracy    <          8.2E-10 Ry

     iteration # 71     ecut=    60.00 Ry     beta= 0.30
     Davidson diagonalization with overlap
     ethr =  1.00E-13,  avg # of iterations =  6.0

     total cpu time spent up to now is      307.1 secs

     total energy              =    -562.37954976 Ry
     estimated scf accuracy    <          3.9E-10 Ry

     iteration # 72     ecut=    60.00 Ry     beta= 0.30
     Davidson diagonalization with overlap
     ethr =  1.00E-13,  avg # of iterations =  7.1

     total cpu time spent up to now is      311.9 secs

     total energy              =    -562.37954976 Ry
     estimated scf accuracy    <          8.8E-10 Ry

     iteration # 73     ecut=    60.00 Ry     beta= 0.30
     Davidson diagonalization with overlap
     ethr =  1.00E-13,  avg # of iterations =  1.3

     total cpu time spent up to now is      314.5 secs

     total energy              =    -562.37954976 Ry
     estimated scf accuracy    <          8.0E-10 Ry

     iteration # 74     ecut=    60.00 Ry     beta= 0.30
     Davidson diagonalization with overlap
     c_bands:  1 eigenvalues not converged
     ethr =  1.00E-13,  avg # of iterations = 11.6

     total cpu time spent up to now is      322.8 secs

     total energy              =    -562.37954976 Ry
     estimated scf accuracy    <          5.9E-11 Ry

     iteration # 75     ecut=    60.00 Ry     beta= 0.30
     Davidson diagonalization with overlap
     ethr =  1.00E-13,  avg # of iterations =  1.6

     total cpu time spent up to now is      325.5 secs

     total energy              =    -562.37954976 Ry
     estimated scf accuracy    <          4.3E-11 Ry

     iteration # 76     ecut=    60.00 Ry     beta= 0.30
     Davidson diagonalization with overlap
     ethr =  1.00E-13,  avg # of iterations =  2.4

     total cpu time spent up to now is      328.5 secs

     total energy              =    -562.37954976 Ry
     estimated scf accuracy    <          7.1E-11 Ry

     iteration # 77     ecut=    60.00 Ry     beta= 0.30
     Davidson diagonalization with overlap
     ethr =  1.00E-13,  avg # of iterations =  1.0

     total cpu time spent up to now is      331.1 secs

     total energy              =    -562.37954976 Ry
     estimated scf accuracy    <          5.5E-11 Ry

     iteration # 78     ecut=    60.00 Ry     beta= 0.30
     Davidson diagonalization with overlap
     ethr =  1.00E-13,  avg # of iterations =  1.2

     total cpu time spent up to now is      333.6 secs

     total energy              =    -562.37954976 Ry
     estimated scf accuracy    <          3.9E-11 Ry

     iteration # 79     ecut=    60.00 Ry     beta= 0.30
     Davidson diagonalization with overlap
     ethr =  1.00E-13,  avg # of iterations =  2.0

     total cpu time spent up to now is      336.5 secs

     total energy              =    -562.37954976 Ry
     estimated scf accuracy    <          1.5E-11 Ry

     iteration # 80     ecut=    60.00 Ry     beta= 0.30
     Davidson diagonalization with overlap
     ethr =  1.00E-13,  avg # of iterations =  2.1

     total cpu time spent up to now is      339.4 secs

     total energy              =    -562.37954976 Ry
     estimated scf accuracy    <          7.2E-12 Ry

     iteration # 81     ecut=    60.00 Ry     beta= 0.30
     Davidson diagonalization with overlap
     ethr =  1.00E-13,  avg # of iterations =  4.6

     total cpu time spent up to now is      342.7 secs

     End of self-consistent calculation

     Number of k-points >= 100: set verbosity='high' to print the bands.

     highest occupied level (ev):    10.0482

!    total energy              =    -562.37954976 Ry

     total all-electron energy =     -8511.839770 Ry
     estimated scf accuracy    <          4.1E-13 Ry

     The total energy is the sum of the following terms:
     one-electron contribution =     -71.53349036 Ry
     hartree contribution      =      60.26685443 Ry
     xc contribution           =     -58.93335798 Ry
     ewald contribution        =    -213.16214682 Ry
     one-center paw contrib.   =    -279.01740904 Ry

     convergence has been achieved in  81 iterations

     Forces acting on atoms (cartesian axes, Ry/au):

     atom    1 type  1   force =     0.00000000    0.00000000    0.00000000
     atom    2 type  2   force =     0.00000000    0.00000000    0.00000000
     atom    3 type  3   force =     0.00000000    0.00000000    0.00000000
     atom    4 type  3   force =     0.00000000    0.00000000    0.00000000
     atom    5 type  3   force =     0.00000000    0.00000000    0.00000000

     Total force =     0.000000     Total SCF correction =     0.000000


     Computing stress (Cartesian axis) and pressure

          total   stress  (Ry/bohr**3)                   (kbar)     P=        0.08
   0.00000063   0.00007725   0.00000000            0.09       11.36        0.00
   0.00007725   0.00000063   0.00000000           11.36        0.09        0.00
   0.00000000   0.00000000   0.00000039            0.00        0.00        0.06


     Writing output data file ./tmp/SrTiO3_pbesol_shear_xy_m005.save/

     init_run     :      2.09s CPU      2.14s WALL (       1 calls)
     electrons    :    333.64s CPU    340.20s WALL (       1 calls)
     forces       :      0.82s CPU      0.83s WALL (       1 calls)
     stress       :      1.84s CPU      1.84s WALL (       1 calls)

     Called by init_run:
     wfcinit      :      1.30s CPU      1.33s WALL (       1 calls)
     potinit      :      0.26s CPU      0.27s WALL (       1 calls)
     hinit0       :      0.41s CPU      0.41s WALL (       1 calls)

     Called by electrons:
     c_bands      :    290.73s CPU    296.51s WALL (      81 calls)
     sum_band     :     29.39s CPU     30.04s WALL (      81 calls)
     v_of_rho     :      0.75s CPU      0.79s WALL (      82 calls)
     newd         :      4.33s CPU      4.36s WALL (      82 calls)
     PAW_pot      :      8.35s CPU      8.44s WALL (      82 calls)
     mix_rho      :      0.14s CPU      0.15s WALL (      81 calls)

     Called by c_bands:
     init_us_2    :      3.39s CPU      3.44s WALL (   17325 calls)
     cegterg      :    280.41s CPU    286.05s WALL (    8505 calls)

     Called by *egterg:
     cdiaghg      :     37.28s CPU     38.16s WALL (   48338 calls)
     h_psi        :    138.39s CPU    142.20s WALL (   48443 calls)
     s_psi        :     25.76s CPU     25.93s WALL (   48443 calls)
     g_psi        :      1.02s CPU      1.03s WALL (   39833 calls)

     Called by h_psi:
     h_psi:calbec :     24.63s CPU     25.53s WALL (   48443 calls)
     vloc_psi     :     87.44s CPU     90.10s WALL (   48443 calls)
     add_vuspsi   :     25.48s CPU     25.73s WALL (   48443 calls)

     General routines
     calbec       :     32.66s CPU     33.81s WALL (   57473 calls)
     fft          :      0.50s CPU      0.54s WALL (    1089 calls)
     ffts         :      0.03s CPU      0.03s WALL (     163 calls)
     fftw         :     88.52s CPU     91.16s WALL ( 1223426 calls)
     interpolate  :      0.06s CPU      0.06s WALL (      82 calls)

     Parallel routines
     fft_scatt_xy :     11.62s CPU     11.96s WALL ( 1224678 calls)
     fft_scatt_yz :     22.65s CPU     23.35s WALL ( 1224678 calls)

     PWSCF        :   5m38.85s CPU   5m45.56s WALL


   This run was terminated on:  11:26: 2  18Jul2026            

=------------------------------------------------------------------------------=
   JOB DONE.
=------------------------------------------------------------------------------=
