ANIMSTEPS   15
CRYSTAL
PRIMVEC
    3.976258201    0.000000000    0.000000000
    0.000000000    3.976258201    0.000000000
    0.000000000    0.000000000    3.976258201
PRIMCOORD    1
      5   1
   Ba     0.00000   0.00000   0.00000   0.00000   0.00000   0.00057
   Ti     1.98813   1.98813   1.98813   0.00000   0.00000   0.04694
   O      1.98813   1.98813   0.00000  -0.00000  -0.00000  -0.07085
   O      1.98813   0.00000   1.98813  -0.00000  -0.00000  -0.03725
   O      0.00000   1.98813   1.98813   0.00000  -0.00000  -0.03725
PRIMCOORD    2
      5   1
   Ba     0.00000   0.00000   0.00000   0.00000  -0.00057   0.00000
   Ti     1.98813   1.98813   1.98813   0.00000  -0.04694   0.00000
   O      1.98813   1.98813   0.00000   0.00000   0.03725  -0.00000
   O      1.98813   0.00000   1.98813  -0.00000   0.07085  -0.00000
   O      0.00000   1.98813   1.98813   0.00000   0.03725  -0.00000
PRIMCOORD    3
      5   1
   Ba     0.00000   0.00000   0.00000   0.01827  -0.00356   0.04066
   Ti     1.98813   1.98813   1.98813   0.01827  -0.00356   0.04066
   O      1.98813   1.98813   0.00000   0.01827  -0.00356   0.04066
   O      1.98813   0.00000   1.98813   0.01827  -0.00356   0.04066
   O      0.00000   1.98813   1.98813   0.01827  -0.00356   0.04066
PRIMCOORD    4
      5   1
   Ba     0.00000   0.00000   0.00000   0.04027   0.00885  -0.01732
   Ti     1.98813   1.98813   1.98813   0.04027   0.00885  -0.01732
   O      1.98813   1.98813   0.00000   0.04027   0.00885  -0.01732
   O      1.98813   0.00000   1.98813   0.04027   0.00885  -0.01732
   O      0.00000   1.98813   1.98813   0.04027   0.00885  -0.01732
PRIMCOORD    5
      5   1
   Ba     0.00000   0.00000   0.00000  -0.00667   0.04369   0.00682
   Ti     1.98813   1.98813   1.98813  -0.00667   0.04369   0.00682
   O      1.98813   1.98813   0.00000  -0.00667   0.04369   0.00682
   O      1.98813   0.00000   1.98813  -0.00667   0.04369   0.00682
   O      0.00000   1.98813   1.98813  -0.00667   0.04369   0.00682
PRIMCOORD    6
      5   1
   Ba     0.00000   0.00000   0.00000  -0.03614  -0.00000   0.00000
   Ti     1.98813   1.98813   1.98813   0.06606   0.00000  -0.00000
   O      1.98813   1.98813   0.00000   0.04176   0.00000  -0.00000
   O      1.98813   0.00000   1.98813   0.04176   0.00000  -0.00000
   O      0.00000   1.98813   1.98813   0.02902   0.00000  -0.00000
PRIMCOORD    7
      5   1
   Ba     0.00000   0.00000   0.00000   0.00000  -0.00319   0.03306
   Ti     1.98813   1.98813   1.98813  -0.00000   0.00466  -0.04833
   O      1.98813   1.98813   0.00000  -0.00000   0.00465  -0.04282
   O      1.98813   0.00000   1.98813  -0.00000   0.00413  -0.04820
   O      0.00000   1.98813   1.98813  -0.00000   0.00465  -0.04820
PRIMCOORD    8
      5   1
   Ba     0.00000   0.00000   0.00000   0.00000   0.03306   0.00319
   Ti     1.98813   1.98813   1.98813   0.00000  -0.04833  -0.00466
   O      1.98813   1.98813   0.00000   0.00000  -0.04820  -0.00413
   O      1.98813   0.00000   1.98813   0.00000  -0.04282  -0.00465
   O      0.00000   1.98813   1.98813   0.00000  -0.04820  -0.00465
PRIMCOORD    9
      5   1
   Ba     0.00000   0.00000   0.00000  -0.00000   0.00000   0.00000
   Ti     1.98813   1.98813   1.98813   0.00000  -0.00000  -0.00000
   O      1.98813   1.98813   0.00000  -0.07068   0.00203   0.00000
   O      1.98813   0.00000   1.98813   0.07068   0.00000   0.00025
   O      0.00000   1.98813   1.98813   0.00000  -0.00203  -0.00025
PRIMCOORD   10
      5   1
   Ba     0.00000   0.00000   0.00000   0.00000  -0.00000   0.00000
   Ti     1.98813   1.98813   1.98813   0.00000   0.00000   0.00000
   O      1.98813   1.98813   0.00000  -0.00204  -0.07062   0.00000
   O      1.98813   0.00000   1.98813   0.00204  -0.00000  -0.00301
   O      0.00000   1.98813   1.98813   0.00000   0.07062   0.00301
PRIMCOORD   11
      5   1
   Ba     0.00000   0.00000   0.00000  -0.00000   0.00000  -0.00000
   Ti     1.98813   1.98813   1.98813   0.00000  -0.00000   0.00000
   O      1.98813   1.98813   0.00000   0.00016  -0.00302   0.00000
   O      1.98813   0.00000   1.98813  -0.00016  -0.00000   0.07065
   O      0.00000   1.98813   1.98813   0.00000   0.00302  -0.07065
PRIMCOORD   12
      5   1
   Ba     0.00000   0.00000   0.00000   0.00139  -0.00000  -0.00000
   Ti     1.98813   1.98813   1.98813   0.02099   0.00000  -0.00000
   O      1.98813   1.98813   0.00000  -0.06072  -0.00000   0.00000
   O      1.98813   0.00000   1.98813  -0.06072  -0.00000  -0.00000
   O      0.00000   1.98813   1.98813   0.04672  -0.00000  -0.00000
PRIMCOORD   13
      5   1
   Ba     0.00000   0.00000   0.00000  -0.00000  -0.00005  -0.00054
   Ti     1.98813   1.98813   1.98813  -0.00000   0.00089   0.01022
   O      1.98813   1.98813   0.00000   0.00000  -0.00422   0.07135
   O      1.98813   0.00000   1.98813   0.00000   0.00619  -0.04863
   O      0.00000   1.98813   1.98813  -0.00000  -0.00422  -0.04863
PRIMCOORD   14
      5   1
   Ba     0.00000   0.00000   0.00000   0.00000   0.00054  -0.00005
   Ti     1.98813   1.98813   1.98813  -0.00000  -0.01022   0.00089
   O      1.98813   1.98813   0.00000  -0.00000   0.04863   0.00619
   O      1.98813   0.00000   1.98813  -0.00000  -0.07135  -0.00422
   O      0.00000   1.98813   1.98813   0.00000   0.04863  -0.00422
PRIMCOORD   15
      5   1
   Ba     0.00000   0.00000   0.00000   0.00494   0.00000  -0.00000
   Ti     1.98813   1.98813   1.98813   0.02940  -0.00000   0.00000
   O      1.98813   1.98813   0.00000  -0.01947   0.00000  -0.00000
   O      1.98813   0.00000   1.98813  -0.01947  -0.00000  -0.00000
   O      0.00000   1.98813   1.98813  -0.09139  -0.00000  -0.00000
