
     Program PWSCF v.6.7MaX starts on 15Jul2026 at 21:29:51 

     This program is part of the open-source Quantum ESPRESSO suite
     for quantum simulation of materials; please cite
         "P. Giannozzi et al., J. Phys.:Condens. Matter 21 395502 (2009);
         "P. Giannozzi et al., J. Phys.:Condens. Matter 29 465901 (2017);
          URL http://www.quantum-espresso.org", 
     in publications or presentations arising from this work. More details at
     http://www.quantum-espresso.org/quote

     Parallel version (MPI), running on     8 processors

     MPI processes distributed on     1 nodes
     R & G space division:  proc/nbgrp/npool/nimage =       8
     Reading input from scf.in

     Current dimensions of program PWSCF are:
     Max number of different atomic species (ntypx) = 10
     Max number of k-points (npk) =  40000
     Max angular momentum in pseudopotentials (lmaxx) =  3
     file Ba.pbesol-spn-kjpaw_psl.1.0.0.UPF: wavefunction(s)  5S 6S renormalized
     file Ti.pbesol-spn-kjpaw_psl.1.0.0.UPF: wavefunction(s)  3S 3P 3D renormalized
     file O.pbesol-n-kjpaw_psl.1.0.0.UPF: wavefunction(s)  2S 2P renormalized

     Subspace diagonalization in iterative solution of the eigenvalue problem:
     one sub-group per band group will be used
     scalapack distributed-memory algorithm (size of sub-group:  2*  2 procs)


     Parallelization info
     --------------------
     sticks:   dense  smooth     PW     G-vecs:    dense   smooth      PW
     Min         270     135     40                 9426     3341     546
     Max         271     136     41                 9429     3344     549
     Sum        2161    1085    325                75421    26745    4385



     bravais-lattice index     =            1
     lattice parameter (alat)  =       7.5140  a.u.
     unit-cell volume          =     424.2485 (a.u.)^3
     number of atoms/cell      =            5
     number of atomic types    =            3
     number of electrons       =        40.00
     number of Kohn-Sham states=           20
     kinetic-energy cutoff     =      60.0000  Ry
     charge density cutoff     =     480.0000  Ry
     scf convergence threshold =      1.0E-12
     mixing beta               =       0.3000
     number of iterations used =            8  plain     mixing
     Exchange-correlation= SLA  PW   PSX  PSC
                           (   1   4  10   8   0   0   0)

     celldm(1)=   7.514039  celldm(2)=   0.000000  celldm(3)=   0.000000
     celldm(4)=   0.000000  celldm(5)=   0.000000  celldm(6)=   0.000000

     crystal axes: (cart. coord. in units of alat)
               a(1) = (   1.000000   0.000000   0.000000 )  
               a(2) = (   0.000000   1.000000   0.000000 )  
               a(3) = (   0.000000   0.000000   1.000000 )  

     reciprocal axes: (cart. coord. in units 2 pi/alat)
               b(1) = (  1.000000  0.000000  0.000000 )  
               b(2) = (  0.000000  1.000000  0.000000 )  
               b(3) = (  0.000000  0.000000  1.000000 )  


     PseudoPot. # 1 for Ba read from file:
     ./pseudo/Ba.pbesol-spn-kjpaw_psl.1.0.0.UPF
     MD5 check sum: dd46dd63df357211ac98124515369fe1
     Pseudo is Projector augmented-wave + core cor, Zval = 10.0
     Generated using 'atomic' code by A. Dal Corso  v.6.7MaX
     Shape of augmentation charge: PSQ
     Using radial grid of 1251 points,  7 beta functions with: 
                l(1) =   0
                l(2) =   0
                l(3) =   0
                l(4) =   1
                l(5) =   1
                l(6) =   2
                l(7) =   2
     Q(r) pseudized with 0 coefficients 


     PseudoPot. # 2 for Ti read from file:
     ./pseudo/Ti.pbesol-spn-kjpaw_psl.1.0.0.UPF
     MD5 check sum: 37a32a5821746b2d50d64995a8e5b789
     Pseudo is Projector augmented-wave + core cor, Zval = 12.0
     Generated using &quot;atomic&quot; code by A. Dal Corso  v.6.2.2
     Shape of augmentation charge: PSQ
     Using radial grid of 1177 points,  6 beta functions with: 
                l(1) =   0
                l(2) =   0
                l(3) =   1
                l(4) =   1
                l(5) =   2
                l(6) =   2
     Q(r) pseudized with 0 coefficients 


     PseudoPot. # 3 for O  read from file:
     ./pseudo/O.pbesol-n-kjpaw_psl.1.0.0.UPF
     MD5 check sum: cb766521a97cf798d01896eaf7ac9a0a
     Pseudo is Projector augmented-wave + core cor, Zval =  6.0
     Generated using &quot;atomic&quot; code by A. Dal Corso  v.6.3
     Shape of augmentation charge: PSQ
     Using radial grid of 1095 points,  4 beta functions with: 
                l(1) =   0
                l(2) =   0
                l(3) =   1
                l(4) =   1
     Q(r) pseudized with 0 coefficients 


     atomic species   valence    mass     pseudopotential
        Ba            10.00   137.32700     Ba( 1.00)
        Ti            12.00    47.86700     Ti( 1.00)
        O              6.00    15.99900     O ( 1.00)

     48 Sym. Ops., with inversion, found



   Cartesian axes

     site n.     atom                  positions (alat units)
         1           Ba  tau(   1) = (   0.0000000   0.0000000   0.0000000  )
         2           Ti  tau(   2) = (   0.5000000   0.5000000   0.5000000  )
         3           O   tau(   3) = (   0.5000000   0.5000000   0.0000000  )
         4           O   tau(   4) = (   0.5000000   0.0000000   0.5000000  )
         5           O   tau(   5) = (   0.0000000   0.5000000   0.5000000  )

     number of k points=    35
                       cart. coord. in units 2pi/alat
        k(    1) = (   0.0000000   0.0000000   0.0000000), wk =   0.0039062
        k(    2) = (   0.0000000   0.0000000   0.1250000), wk =   0.0234375
        k(    3) = (   0.0000000   0.0000000   0.2500000), wk =   0.0234375
        k(    4) = (   0.0000000   0.0000000   0.3750000), wk =   0.0234375
        k(    5) = (   0.0000000   0.0000000  -0.5000000), wk =   0.0117188
        k(    6) = (   0.0000000   0.1250000   0.1250000), wk =   0.0468750
        k(    7) = (   0.0000000   0.1250000   0.2500000), wk =   0.0937500
        k(    8) = (   0.0000000   0.1250000   0.3750000), wk =   0.0937500
        k(    9) = (   0.0000000   0.1250000  -0.5000000), wk =   0.0468750
        k(   10) = (   0.0000000   0.2500000   0.2500000), wk =   0.0468750
        k(   11) = (   0.0000000   0.2500000   0.3750000), wk =   0.0937500
        k(   12) = (   0.0000000   0.2500000  -0.5000000), wk =   0.0468750
        k(   13) = (   0.0000000   0.3750000   0.3750000), wk =   0.0468750
        k(   14) = (   0.0000000   0.3750000  -0.5000000), wk =   0.0468750
        k(   15) = (   0.0000000  -0.5000000  -0.5000000), wk =   0.0117188
        k(   16) = (   0.1250000   0.1250000   0.1250000), wk =   0.0312500
        k(   17) = (   0.1250000   0.1250000   0.2500000), wk =   0.0937500
        k(   18) = (   0.1250000   0.1250000   0.3750000), wk =   0.0937500
        k(   19) = (   0.1250000   0.1250000  -0.5000000), wk =   0.0468750
        k(   20) = (   0.1250000   0.2500000   0.2500000), wk =   0.0937500
        k(   21) = (   0.1250000   0.2500000   0.3750000), wk =   0.1875000
        k(   22) = (   0.1250000   0.2500000  -0.5000000), wk =   0.0937500
        k(   23) = (   0.1250000   0.3750000   0.3750000), wk =   0.0937500
        k(   24) = (   0.1250000   0.3750000  -0.5000000), wk =   0.0937500
        k(   25) = (   0.1250000  -0.5000000  -0.5000000), wk =   0.0234375
        k(   26) = (   0.2500000   0.2500000   0.2500000), wk =   0.0312500
        k(   27) = (   0.2500000   0.2500000   0.3750000), wk =   0.0937500
        k(   28) = (   0.2500000   0.2500000  -0.5000000), wk =   0.0468750
        k(   29) = (   0.2500000   0.3750000   0.3750000), wk =   0.0937500
        k(   30) = (   0.2500000   0.3750000  -0.5000000), wk =   0.0937500
        k(   31) = (   0.2500000  -0.5000000  -0.5000000), wk =   0.0234375
        k(   32) = (   0.3750000   0.3750000   0.3750000), wk =   0.0312500
        k(   33) = (   0.3750000   0.3750000  -0.5000000), wk =   0.0468750
        k(   34) = (   0.3750000  -0.5000000  -0.5000000), wk =   0.0234375
        k(   35) = (  -0.5000000  -0.5000000  -0.5000000), wk =   0.0039062

     Dense  grid:    75421 G-vectors     FFT dimensions: (  54,  54,  54)

     Smooth grid:    26745 G-vectors     FFT dimensions: (  40,  40,  40)

     Estimated max dynamical RAM per process >      49.49 MB

     Estimated total dynamical RAM >     395.90 MB

     Check: negative core charge=   -0.000002

     Initial potential from superposition of free atoms

     starting charge   39.98294, renormalised to   40.00000
     Starting wfcs are   27 randomized atomic wfcs
     Checking if some PAW data can be deallocated... 

     total cpu time spent up to now is        1.3 secs

     Self-consistent Calculation

     iteration #  1     ecut=    60.00 Ry     beta= 0.30
     Davidson diagonalization with overlap
     ethr =  1.00E-02,  avg # of iterations =  1.0

     total cpu time spent up to now is        2.3 secs

     total energy              =    -734.99969865 Ry
     estimated scf accuracy    <       2.27509480 Ry

     iteration #  2     ecut=    60.00 Ry     beta= 0.30
     Davidson diagonalization with overlap
     ethr =  5.69E-03,  avg # of iterations =  2.2

     total cpu time spent up to now is        3.5 secs

     total energy              =    -735.43975026 Ry
     estimated scf accuracy    <       0.20070025 Ry

     iteration #  3     ecut=    60.00 Ry     beta= 0.30
     Davidson diagonalization with overlap
     c_bands:  1 eigenvalues not converged
     ethr =  5.02E-04,  avg # of iterations = 14.0

     total cpu time spent up to now is        6.6 secs

     total energy              =    -735.63212648 Ry
     estimated scf accuracy    <       2.61674114 Ry

     iteration #  4     ecut=    60.00 Ry     beta= 0.30
     Davidson diagonalization with overlap
     ethr =  5.02E-04,  avg # of iterations =  7.2

     total cpu time spent up to now is        8.3 secs

     total energy              =    -735.14740923 Ry
     estimated scf accuracy    <       0.94429133 Ry

     iteration #  5     ecut=    60.00 Ry     beta= 0.30
     Davidson diagonalization with overlap
     ethr =  5.02E-04,  avg # of iterations =  9.4

     total cpu time spent up to now is       10.9 secs

     total energy              =    -735.83546797 Ry
     estimated scf accuracy    <       1.11744870 Ry

     iteration #  6     ecut=    60.00 Ry     beta= 0.30
     Davidson diagonalization with overlap
     ethr =  5.02E-04,  avg # of iterations =  1.7

     total cpu time spent up to now is       12.0 secs

     total energy              =    -735.74230142 Ry
     estimated scf accuracy    <       0.72762303 Ry

     iteration #  7     ecut=    60.00 Ry     beta= 0.30
     Davidson diagonalization with overlap
     ethr =  5.02E-04,  avg # of iterations =  3.5

     total cpu time spent up to now is       13.2 secs

     total energy              =    -735.76552717 Ry
     estimated scf accuracy    <       0.39393336 Ry

     iteration #  8     ecut=    60.00 Ry     beta= 0.30
     Davidson diagonalization with overlap
     ethr =  5.02E-04,  avg # of iterations =  1.4

     total cpu time spent up to now is       14.3 secs

     total energy              =    -735.69743531 Ry
     estimated scf accuracy    <       0.36557881 Ry

     iteration #  9     ecut=    60.00 Ry     beta= 0.30
     Davidson diagonalization with overlap
     ethr =  5.02E-04,  avg # of iterations =  1.9

     total cpu time spent up to now is       15.3 secs

     total energy              =    -735.68114715 Ry
     estimated scf accuracy    <       0.21803629 Ry

     iteration # 10     ecut=    60.00 Ry     beta= 0.30
     Davidson diagonalization with overlap
     ethr =  5.02E-04,  avg # of iterations =  2.1

     total cpu time spent up to now is       16.4 secs

     total energy              =    -735.58750861 Ry
     estimated scf accuracy    <       0.15410833 Ry

     iteration # 11     ecut=    60.00 Ry     beta= 0.30
     Davidson diagonalization with overlap
     ethr =  3.85E-04,  avg # of iterations = 11.9

     total cpu time spent up to now is       19.0 secs

     total energy              =    -735.63635227 Ry
     estimated scf accuracy    <       1.12264673 Ry

     iteration # 12     ecut=    60.00 Ry     beta= 0.30
     Davidson diagonalization with overlap
     ethr =  3.85E-04,  avg # of iterations =  6.5

     total cpu time spent up to now is       20.5 secs

     total energy              =    -735.69987974 Ry
     estimated scf accuracy    <       0.26476247 Ry

     iteration # 13     ecut=    60.00 Ry     beta= 0.30
     Davidson diagonalization with overlap
     ethr =  3.85E-04,  avg # of iterations =  2.4

     total cpu time spent up to now is       21.7 secs

     total energy              =    -735.73203801 Ry
     estimated scf accuracy    <       0.20392615 Ry

     iteration # 14     ecut=    60.00 Ry     beta= 0.30
     Davidson diagonalization with overlap
     ethr =  3.85E-04,  avg # of iterations =  1.2

     total cpu time spent up to now is       22.7 secs

     total energy              =    -735.72924511 Ry
     estimated scf accuracy    <       0.23671212 Ry

     iteration # 15     ecut=    60.00 Ry     beta= 0.30
     Davidson diagonalization with overlap
     ethr =  3.85E-04,  avg # of iterations =  1.3

     total cpu time spent up to now is       23.7 secs

     total energy              =    -735.75555354 Ry
     estimated scf accuracy    <       0.21073104 Ry

     iteration # 16     ecut=    60.00 Ry     beta= 0.30
     Davidson diagonalization with overlap
     ethr =  3.85E-04,  avg # of iterations =  1.0

     total cpu time spent up to now is       24.7 secs

     total energy              =    -735.67373923 Ry
     estimated scf accuracy    <       0.24893300 Ry

     iteration # 17     ecut=    60.00 Ry     beta= 0.30
     Davidson diagonalization with overlap
     ethr =  3.85E-04,  avg # of iterations =  4.3

     total cpu time spent up to now is       26.0 secs

     total energy              =    -735.71058287 Ry
     estimated scf accuracy    <       0.03079804 Ry

     iteration # 18     ecut=    60.00 Ry     beta= 0.30
     Davidson diagonalization with overlap
     ethr =  7.70E-05,  avg # of iterations =  5.2

     total cpu time spent up to now is       27.4 secs

     total energy              =    -735.72240355 Ry
     estimated scf accuracy    <       0.00731506 Ry

     iteration # 19     ecut=    60.00 Ry     beta= 0.30
     Davidson diagonalization with overlap
     ethr =  1.83E-05,  avg # of iterations =  5.3

     total cpu time spent up to now is       28.8 secs

     total energy              =    -735.72623632 Ry
     estimated scf accuracy    <       0.00248705 Ry

     iteration # 20     ecut=    60.00 Ry     beta= 0.30
     Davidson diagonalization with overlap
     ethr =  6.22E-06,  avg # of iterations =  6.6

     total cpu time spent up to now is       30.5 secs

     total energy              =    -735.73505074 Ry
     estimated scf accuracy    <       0.00845614 Ry

     iteration # 21     ecut=    60.00 Ry     beta= 0.30
     Davidson diagonalization with overlap
     ethr =  6.22E-06,  avg # of iterations = 11.1

     total cpu time spent up to now is       33.0 secs

     total energy              =    -735.74628282 Ry
     estimated scf accuracy    <       0.08758023 Ry

     iteration # 22     ecut=    60.00 Ry     beta= 0.30
     Davidson diagonalization with overlap
     ethr =  6.22E-06,  avg # of iterations =  5.4

     total cpu time spent up to now is       34.5 secs

     total energy              =    -735.72817477 Ry
     estimated scf accuracy    <       0.11925598 Ry

     iteration # 23     ecut=    60.00 Ry     beta= 0.30
     Davidson diagonalization with overlap
     ethr =  6.22E-06,  avg # of iterations =  8.5

     total cpu time spent up to now is       36.6 secs

     total energy              =    -735.73846488 Ry
     estimated scf accuracy    <       0.04299879 Ry

     iteration # 24     ecut=    60.00 Ry     beta= 0.30
     Davidson diagonalization with overlap
     ethr =  6.22E-06,  avg # of iterations =  5.6

     total cpu time spent up to now is       38.0 secs

     total energy              =    -735.74079680 Ry
     estimated scf accuracy    <       0.06898313 Ry

     iteration # 25     ecut=    60.00 Ry     beta= 0.30
     Davidson diagonalization with overlap
     ethr =  6.22E-06,  avg # of iterations =  2.4

     total cpu time spent up to now is       39.2 secs

     total energy              =    -735.74183451 Ry
     estimated scf accuracy    <       0.07484239 Ry

     iteration # 26     ecut=    60.00 Ry     beta= 0.30
     Davidson diagonalization with overlap
     ethr =  6.22E-06,  avg # of iterations =  2.4

     total cpu time spent up to now is       40.4 secs

     total energy              =    -735.71386694 Ry
     estimated scf accuracy    <       0.08196397 Ry

     iteration # 27     ecut=    60.00 Ry     beta= 0.30
     Davidson diagonalization with overlap
     ethr =  6.22E-06,  avg # of iterations = 11.7

     total cpu time spent up to now is       43.2 secs

     total energy              =    -735.72565512 Ry
     estimated scf accuracy    <       0.00051522 Ry

     iteration # 28     ecut=    60.00 Ry     beta= 0.30
     Davidson diagonalization with overlap
     ethr =  1.29E-06,  avg # of iterations =  9.3

     total cpu time spent up to now is       45.2 secs

     total energy              =    -735.72564666 Ry
     estimated scf accuracy    <       0.00246155 Ry

     iteration # 29     ecut=    60.00 Ry     beta= 0.30
     Davidson diagonalization with overlap
     ethr =  1.29E-06,  avg # of iterations =  6.1

     total cpu time spent up to now is       46.8 secs

     total energy              =    -735.72578485 Ry
     estimated scf accuracy    <       0.00029144 Ry

     iteration # 30     ecut=    60.00 Ry     beta= 0.30
     Davidson diagonalization with overlap
     ethr =  7.29E-07,  avg # of iterations =  8.6

     total cpu time spent up to now is       48.9 secs

     total energy              =    -735.72615235 Ry
     estimated scf accuracy    <       0.00043308 Ry

     iteration # 31     ecut=    60.00 Ry     beta= 0.30
     Davidson diagonalization with overlap
     ethr =  7.29E-07,  avg # of iterations =  3.0

     total cpu time spent up to now is       50.0 secs

     total energy              =    -735.72613202 Ry
     estimated scf accuracy    <       0.00075529 Ry

     iteration # 32     ecut=    60.00 Ry     beta= 0.30
     Davidson diagonalization with overlap
     ethr =  7.29E-07,  avg # of iterations =  1.2

     total cpu time spent up to now is       51.1 secs

     total energy              =    -735.72605317 Ry
     estimated scf accuracy    <       0.00071452 Ry

     iteration # 33     ecut=    60.00 Ry     beta= 0.30
     Davidson diagonalization with overlap
     ethr =  7.29E-07,  avg # of iterations =  1.0

     total cpu time spent up to now is       52.1 secs

     total energy              =    -735.72572424 Ry
     estimated scf accuracy    <       0.00059596 Ry

     iteration # 34     ecut=    60.00 Ry     beta= 0.30
     Davidson diagonalization with overlap
     ethr =  7.29E-07,  avg # of iterations =  8.3

     total cpu time spent up to now is       54.0 secs

     total energy              =    -735.72597076 Ry
     estimated scf accuracy    <       0.00013489 Ry

     iteration # 35     ecut=    60.00 Ry     beta= 0.30
     Davidson diagonalization with overlap
     ethr =  3.37E-07,  avg # of iterations =  2.0

     total cpu time spent up to now is       55.2 secs

     total energy              =    -735.72595064 Ry
     estimated scf accuracy    <       0.00015997 Ry

     iteration # 36     ecut=    60.00 Ry     beta= 0.30
     Davidson diagonalization with overlap
     ethr =  3.37E-07,  avg # of iterations =  1.1

     total cpu time spent up to now is       56.2 secs

     total energy              =    -735.72595524 Ry
     estimated scf accuracy    <       0.00012283 Ry

     iteration # 37     ecut=    60.00 Ry     beta= 0.30
     Davidson diagonalization with overlap
     ethr =  3.07E-07,  avg # of iterations =  1.1

     total cpu time spent up to now is       57.2 secs

     total energy              =    -735.72595413 Ry
     estimated scf accuracy    <       0.00013501 Ry

     iteration # 38     ecut=    60.00 Ry     beta= 0.30
     Davidson diagonalization with overlap
     ethr =  3.07E-07,  avg # of iterations =  1.0

     total cpu time spent up to now is       58.1 secs

     total energy              =    -735.72592657 Ry
     estimated scf accuracy    <       0.00013234 Ry

     iteration # 39     ecut=    60.00 Ry     beta= 0.30
     Davidson diagonalization with overlap
     ethr =  3.07E-07,  avg # of iterations =  1.9

     total cpu time spent up to now is       59.2 secs

     total energy              =    -735.72592151 Ry
     estimated scf accuracy    <       0.00006918 Ry

     iteration # 40     ecut=    60.00 Ry     beta= 0.30
     Davidson diagonalization with overlap
     ethr =  1.73E-07,  avg # of iterations =  2.5

     total cpu time spent up to now is       60.3 secs

     total energy              =    -735.72591492 Ry
     estimated scf accuracy    <       0.00004068 Ry

     iteration # 41     ecut=    60.00 Ry     beta= 0.30
     Davidson diagonalization with overlap
     ethr =  1.02E-07,  avg # of iterations =  6.7

     total cpu time spent up to now is       62.0 secs

     total energy              =    -735.72592801 Ry
     estimated scf accuracy    <       0.00003092 Ry

     iteration # 42     ecut=    60.00 Ry     beta= 0.30
     Davidson diagonalization with overlap
     ethr =  7.73E-08,  avg # of iterations =  2.1

     total cpu time spent up to now is       63.1 secs

     total energy              =    -735.72592844 Ry
     estimated scf accuracy    <       0.00000918 Ry

     iteration # 43     ecut=    60.00 Ry     beta= 0.30
     Davidson diagonalization with overlap
     ethr =  2.29E-08,  avg # of iterations =  6.8

     total cpu time spent up to now is       64.7 secs

     total energy              =    -735.72593321 Ry
     estimated scf accuracy    <       0.00000778 Ry

     iteration # 44     ecut=    60.00 Ry     beta= 0.30
     Davidson diagonalization with overlap
     ethr =  1.94E-08,  avg # of iterations =  1.4

     total cpu time spent up to now is       65.7 secs

     total energy              =    -735.72593208 Ry
     estimated scf accuracy    <       0.00000751 Ry

     iteration # 45     ecut=    60.00 Ry     beta= 0.30
     Davidson diagonalization with overlap
     ethr =  1.88E-08,  avg # of iterations =  1.2

     total cpu time spent up to now is       66.7 secs

     total energy              =    -735.72593295 Ry
     estimated scf accuracy    <       0.00000485 Ry

     iteration # 46     ecut=    60.00 Ry     beta= 0.30
     Davidson diagonalization with overlap
     ethr =  1.21E-08,  avg # of iterations = 14.3

     total cpu time spent up to now is       70.1 secs

     total energy              =    -735.72587687 Ry
     estimated scf accuracy    <       0.00023858 Ry

     iteration # 47     ecut=    60.00 Ry     beta= 0.30
     Davidson diagonalization with overlap
     c_bands:  1 eigenvalues not converged
     c_bands:  1 eigenvalues not converged
     ethr =  1.21E-08,  avg # of iterations = 15.2

     total cpu time spent up to now is       73.7 secs

     total energy              =    -735.72594048 Ry
     estimated scf accuracy    <       0.00001962 Ry

     iteration # 48     ecut=    60.00 Ry     beta= 0.30
     Davidson diagonalization with overlap
     ethr =  1.21E-08,  avg # of iterations =  4.8

     total cpu time spent up to now is       75.1 secs

     total energy              =    -735.72592627 Ry
     estimated scf accuracy    <       0.00003775 Ry

     iteration # 49     ecut=    60.00 Ry     beta= 0.30
     Davidson diagonalization with overlap
     ethr =  1.21E-08,  avg # of iterations =  8.4

     total cpu time spent up to now is       77.1 secs

     total energy              =    -735.72593247 Ry
     estimated scf accuracy    <       0.00000089 Ry

     iteration # 50     ecut=    60.00 Ry     beta= 0.30
     Davidson diagonalization with overlap
     ethr =  2.23E-09,  avg # of iterations =  8.8

     total cpu time spent up to now is       79.3 secs

     total energy              =    -735.72593184 Ry
     estimated scf accuracy    <       0.00001113 Ry

     iteration # 51     ecut=    60.00 Ry     beta= 0.30
     Davidson diagonalization with overlap
     ethr =  2.23E-09,  avg # of iterations =  2.4

     total cpu time spent up to now is       80.5 secs

     total energy              =    -735.72593059 Ry
     estimated scf accuracy    <       0.00000786 Ry

     iteration # 52     ecut=    60.00 Ry     beta= 0.30
     Davidson diagonalization with overlap
     ethr =  2.23E-09,  avg # of iterations =  7.4

     total cpu time spent up to now is       82.3 secs

     total energy              =    -735.72593087 Ry
     estimated scf accuracy    <       0.00000099 Ry

     iteration # 53     ecut=    60.00 Ry     beta= 0.30
     Davidson diagonalization with overlap
     c_bands:  1 eigenvalues not converged
     c_bands:  1 eigenvalues not converged
     ethr =  2.23E-09,  avg # of iterations = 15.3

     total cpu time spent up to now is       86.0 secs

     total energy              =    -735.72592282 Ry
     estimated scf accuracy    <       0.00005549 Ry

     iteration # 54     ecut=    60.00 Ry     beta= 0.30
     Davidson diagonalization with overlap
     ethr =  2.23E-09,  avg # of iterations = 14.2

     total cpu time spent up to now is       89.4 secs

     total energy              =    -735.72593141 Ry
     estimated scf accuracy    <          4.6E-09 Ry

     iteration # 55     ecut=    60.00 Ry     beta= 0.30
     Davidson diagonalization with overlap
     c_bands:  2 eigenvalues not converged
     c_bands:  2 eigenvalues not converged
     c_bands:  1 eigenvalues not converged
     ethr =  1.15E-11,  avg # of iterations = 16.1

     total cpu time spent up to now is       93.0 secs

     total energy              =    -735.72593143 Ry
     estimated scf accuracy    <       0.00000029 Ry

     iteration # 56     ecut=    60.00 Ry     beta= 0.30
     Davidson diagonalization with overlap
     ethr =  1.15E-11,  avg # of iterations = 13.5

     total cpu time spent up to now is       96.1 secs

     total energy              =    -735.72593146 Ry
     estimated scf accuracy    <       0.00000001 Ry

     iteration # 57     ecut=    60.00 Ry     beta= 0.30
     Davidson diagonalization with overlap
     ethr =  1.15E-11,  avg # of iterations = 12.1

     total cpu time spent up to now is       98.9 secs

     total energy              =    -735.72593146 Ry
     estimated scf accuracy    <       0.00000005 Ry

     iteration # 58     ecut=    60.00 Ry     beta= 0.30
     Davidson diagonalization with overlap
     ethr =  1.15E-11,  avg # of iterations =  8.6

     total cpu time spent up to now is      100.9 secs

     total energy              =    -735.72593146 Ry
     estimated scf accuracy    <          3.8E-09 Ry

     iteration # 59     ecut=    60.00 Ry     beta= 0.30
     Davidson diagonalization with overlap
     ethr =  9.43E-12,  avg # of iterations =  3.7

     total cpu time spent up to now is      102.1 secs

     total energy              =    -735.72593146 Ry
     estimated scf accuracy    <          1.5E-09 Ry

     iteration # 60     ecut=    60.00 Ry     beta= 0.30
     Davidson diagonalization with overlap
     ethr =  3.80E-12,  avg # of iterations =  6.1

     total cpu time spent up to now is      103.6 secs

     total energy              =    -735.72593146 Ry
     estimated scf accuracy    <          8.4E-12 Ry

     iteration # 61     ecut=    60.00 Ry     beta= 0.30
     Davidson diagonalization with overlap
     c_bands:  1 eigenvalues not converged
     c_bands:  4 eigenvalues not converged
     c_bands:  1 eigenvalues not converged
     ethr =  1.00E-13,  avg # of iterations = 15.8

     total cpu time spent up to now is      107.1 secs

     total energy              =    -735.72593146 Ry
     estimated scf accuracy    <          1.9E-09 Ry

     iteration # 62     ecut=    60.00 Ry     beta= 0.30
     Davidson diagonalization with overlap
     c_bands:  1 eigenvalues not converged
     ethr =  1.00E-13,  avg # of iterations = 14.9

     total cpu time spent up to now is      110.6 secs

     total energy              =    -735.72593146 Ry
     estimated scf accuracy    <          6.0E-11 Ry

     iteration # 63     ecut=    60.00 Ry     beta= 0.30
     Davidson diagonalization with overlap
     ethr =  1.00E-13,  avg # of iterations =  1.3

     total cpu time spent up to now is      111.6 secs

     total energy              =    -735.72593146 Ry
     estimated scf accuracy    <          4.0E-11 Ry

     iteration # 64     ecut=    60.00 Ry     beta= 0.30
     Davidson diagonalization with overlap
     ethr =  1.00E-13,  avg # of iterations =  8.8

     total cpu time spent up to now is      113.8 secs

     total energy              =    -735.72593146 Ry
     estimated scf accuracy    <          1.1E-10 Ry

     iteration # 65     ecut=    60.00 Ry     beta= 0.30
     Davidson diagonalization with overlap
     ethr =  1.00E-13,  avg # of iterations =  8.1

     total cpu time spent up to now is      115.9 secs

     total energy              =    -735.72593146 Ry
     estimated scf accuracy    <          2.0E-11 Ry

     iteration # 66     ecut=    60.00 Ry     beta= 0.30
     Davidson diagonalization with overlap
     ethr =  1.00E-13,  avg # of iterations =  2.5

     total cpu time spent up to now is      117.0 secs

     total energy              =    -735.72593146 Ry
     estimated scf accuracy    <          4.1E-11 Ry

     iteration # 67     ecut=    60.00 Ry     beta= 0.30
     Davidson diagonalization with overlap
     ethr =  1.00E-13,  avg # of iterations =  1.3

     total cpu time spent up to now is      118.0 secs

     total energy              =    -735.72593146 Ry
     estimated scf accuracy    <          1.3E-11 Ry

     iteration # 68     ecut=    60.00 Ry     beta= 0.30
     Davidson diagonalization with overlap
     ethr =  1.00E-13,  avg # of iterations =  1.2

     total cpu time spent up to now is      119.0 secs

     total energy              =    -735.72593146 Ry
     estimated scf accuracy    <          8.6E-12 Ry

     iteration # 69     ecut=    60.00 Ry     beta= 0.30
     Davidson diagonalization with overlap
     ethr =  1.00E-13,  avg # of iterations =  2.1

     total cpu time spent up to now is      120.1 secs

     total energy              =    -735.72593146 Ry
     estimated scf accuracy    <          2.5E-12 Ry

     iteration # 70     ecut=    60.00 Ry     beta= 0.30
     Davidson diagonalization with overlap
     ethr =  1.00E-13,  avg # of iterations =  2.4

     total cpu time spent up to now is      121.3 secs

     End of self-consistent calculation

          k = 0.0000 0.0000 0.0000 (  3287 PWs)   bands (ev):

   -45.7134 -22.0644 -22.0644 -22.0644 -14.1514  -6.3256  -5.6430  -5.6430
     0.6653   0.6653   0.6653   8.2361   8.2361   8.2361   9.3665   9.3665
     9.3665  10.4121  10.4121  10.4121

          k = 0.0000 0.0000 0.1250 (  3327 PWs)   bands (ev):

   -45.7133 -22.0732 -22.0641 -22.0641 -14.1318  -6.3376  -5.6375  -5.6285
     0.6915   0.6915   0.7359   7.9648   8.1866   8.1866   9.1812   9.1812
     9.2187  10.0017  10.2916  10.2916

          k = 0.0000 0.0000 0.2500 (  3331 PWs)   bands (ev):

   -45.7129 -22.0943 -22.0632 -22.0632 -14.0839  -6.4201  -5.6241  -5.5284
     0.7564   0.7564   0.9042   7.3212   8.0205   8.0205   8.8693   8.8693
     8.8999   9.2708  10.0696  10.0696

          k = 0.0000 0.0000 0.3750 (  3346 PWs)   bands (ev):

   -45.7125 -22.1152 -22.0624 -22.0624 -14.0348  -6.5459  -5.6105  -5.3687
     0.8241   0.8241   1.0702   6.6971   7.7940   7.7940   8.6206   8.6914
     8.6914   8.7219   9.8891   9.8891

          k = 0.0000 0.0000-0.5000 (  3362 PWs)   bands (ev):

   -45.7123 -22.1239 -22.0620 -22.0620 -14.0141  -6.6039  -5.6049  -5.2916
     0.8530   0.8530   1.1384   6.4447   7.6896   7.6896   8.5136   8.5239
     8.6415   8.6415   9.8219   9.8219

          k = 0.0000 0.1250 0.1250 (  3327 PWs)   bands (ev):

   -45.7131 -22.0730 -22.0725 -22.0637 -14.1133  -6.3331  -5.6321  -5.6224
     0.6634   0.7185   0.8317   7.7868   8.0535   8.1510   8.7972   9.0074
     9.3785   9.7271  10.1516  10.1598

          k = 0.0000 0.1250 0.2500 (  3320 PWs)   bands (ev):

   -45.7127 -22.0938 -22.0718 -22.0629 -14.0678  -6.3777  -5.6147  -5.5466
     0.6976   0.7857   0.9574   7.2351   7.8436   8.0138   8.3396   8.7045
     9.1292   9.3790   9.8969   9.9700

          k = 0.0000 0.1250 0.3750 (  3333 PWs)   bands (ev):

   -45.7123 -22.1147 -22.0709 -22.0620 -14.0214  -6.4762  -5.5967  -5.4029
     0.7724   0.8558   1.0368   6.6552   7.6762   7.7983   7.9263   8.5404
     8.8049   9.3383   9.6928   9.7257

          k = 0.0000 0.1250-0.5000 (  3350 PWs)   bands (ev):

   -45.7121 -22.1233 -22.0706 -22.0617 -14.0018  -6.5255  -5.5892  -5.3302
     0.8137   0.8857   1.0576   6.4136   7.6481   7.6941   7.7301   8.4988
     8.6925   9.3971   9.5598   9.6168

          k = 0.0000 0.2500 0.2500 (  3333 PWs)   bands (ev):

   -45.7123 -22.0932 -22.0922 -22.0621 -14.0286  -6.3107  -5.6039  -5.5365
     0.6555   0.8586   0.9818   6.9728   7.4683   7.7511   7.9674   8.3737
     8.9822   9.4723   9.5789  10.0466

          k = 0.0000 0.2500 0.3750 (  3328 PWs)   bands (ev):

   -45.7119 -22.1133 -22.0915 -22.0612 -13.9887  -6.3075  -5.5750  -5.4689
     0.6850   0.9302   0.9349   6.5591   7.1634   7.3383   7.8081   8.1963
     9.0117   9.3257   9.4593  10.0434

          k = 0.0000 0.2500-0.5000 (  3326 PWs)   bands (ev):

   -45.7117 -22.1218 -22.0910 -22.0609 -13.9719  -6.3238  -5.5584  -5.4243
     0.7315   0.8738   0.9677   6.3482   7.0013   7.2677   7.7058   8.1680
     9.1063   9.2313   9.3910  10.0108

          k = 0.0000 0.3750 0.3750 (  3343 PWs)   bands (ev):

   -45.7115 -22.1123 -22.1117 -22.0604 -13.9554  -6.1485  -5.5730  -5.4975
     0.6452   0.7932   1.0181   6.3830   6.7162   6.8395   7.7976   7.8965
     9.0353   9.2716   9.6018  10.2826

          k = 0.0000 0.3750-0.5000 (  3328 PWs)   bands (ev):

   -45.7113 -22.1204 -22.1114 -22.0601 -13.9414  -6.0933  -5.5486  -5.5197
     0.6647   0.7058   1.0539   6.2382   6.5105   6.7459   7.7191   7.8526
     8.9281   9.5039   9.5573  10.3434

          k = 0.0000-0.5000-0.5000 (  3348 PWs)   bands (ev):

   -45.7112 -22.1198 -22.1198 -22.0598 -13.9287  -5.9804  -5.5595  -5.5595
     0.6412   0.6412   1.0910   6.1261   6.3371   6.5850   7.7254   7.7254
     8.8170   9.6643   9.6643  10.4382

          k = 0.1250 0.1250 0.1250 (  3329 PWs)   bands (ev):

   -45.7129 -22.0729 -22.0722 -22.0722 -14.0956  -6.3163  -5.6234  -5.6234
     0.6677   0.6677   0.9427   7.6073   8.0207   8.0207   8.7070   8.7070
     9.4254   9.5190  10.0602  10.0602

          k = 0.1250 0.1250 0.2500 (  3320 PWs)   bands (ev):

   -45.7125 -22.0934 -22.0717 -22.0713 -14.0524  -6.3305  -5.6023  -5.5628
     0.6773   0.6898   1.0604   7.1342   7.7395   7.9063   8.3613   8.3793
     9.0341   9.4948   9.8360   9.8885

          k = 0.1250 0.1250 0.3750 (  3335 PWs)   bands (ev):

   -45.7121 -22.1141 -22.0707 -22.0704 -14.0083  -6.4051  -5.5809  -5.4287
     0.6857   0.8100   1.0709   6.6168   7.5134   7.7651   7.8884   8.2136
     9.0584   9.3580   9.6285   9.6301

          k = 0.1250 0.1250-0.5000 (  3348 PWs)   bands (ev):

   -45.7120 -22.1227 -22.0704 -22.0701 -13.9898  -6.4465  -5.5720  -5.3584
     0.6888   0.9611   0.9710   6.3885   7.5164   7.6215   7.7111   8.1577
     9.2009   9.2942   9.4199   9.5452

          k = 0.1250 0.2500 0.2500 (  3327 PWs)   bands (ev):

   -45.7121 -22.0927 -22.0918 -22.0706 -14.0148  -6.2497  -5.5877  -5.5469
     0.6076   0.6570   1.1227   6.8764   7.4552   7.6433   8.0460   8.2573
     8.6610   9.6073   9.6495   9.9741

          k = 0.1250 0.2500 0.3750 (  3339 PWs)   bands (ev):

   -45.7117 -22.1129 -22.0911 -22.0697 -13.9764  -6.2325  -5.5542  -5.4761
     0.5792   0.6954   1.0609   6.5343   7.1281   7.3757   7.8233   8.1141
     8.7117   9.4196   9.5910  10.0006

          k = 0.1250 0.2500-0.5000 (  3330 PWs)   bands (ev):

   -45.7115 -22.1213 -22.0907 -22.0694 -13.9603  -6.2435  -5.5370  -5.4286
     0.5631   0.7733   0.9745   6.3372   7.0405   7.2853   7.7134   8.0854
     8.7889   9.4194   9.4592   9.9836

          k = 0.1250 0.3750 0.3750 (  3339 PWs)   bands (ev):

   -45.7113 -22.1118 -22.1113 -22.0689 -13.9440  -6.0686  -5.5494  -5.4859
     0.5462   0.5903   0.9771   6.3891   6.8375   6.8651   7.8371   7.9411
     8.5763   9.4380   9.7044  10.2695

          k = 0.1250 0.3750-0.5000 (  3326 PWs)   bands (ev):

   -45.7111 -22.1199 -22.1110 -22.0685 -13.9304  -6.0113  -5.5226  -5.5017
     0.5175   0.5917   0.9156   6.2405   6.7346   6.7497   7.7782   7.9208
     8.5078   9.6250   9.6283  10.3427

          k = 0.1250-0.5000-0.5000 (  3332 PWs)   bands (ev):

   -45.7110 -22.1194 -22.1194 -22.0682 -13.9179  -5.8962  -5.5328  -5.5328
     0.5212   0.5212   0.8702   6.1297   6.5877   6.6421   7.8246   7.8246
     8.3774   9.7373   9.7373  10.4495

          k = 0.2500 0.2500 0.2500 (  3329 PWs)   bands (ev):

   -45.7117 -22.0920 -22.0908 -22.0908 -13.9810  -6.1228  -5.5478  -5.5478
     0.4914   0.4914   1.1293   6.7123   7.4244   7.4244   7.9355   8.1138
     8.1138   9.7954   9.7954   9.9078

          k = 0.2500 0.2500 0.3750 (  3335 PWs)   bands (ev):

   -45.7113 -22.1117 -22.0905 -22.0899 -13.9466  -6.0489  -5.5068  -5.4885
     0.3745   0.4801   0.9695   6.5030   7.0811   7.4005   7.5384   8.0595
     8.2221   9.6437   9.8993   9.9943

          k = 0.2500 0.2500-0.5000 (  3314 PWs)   bands (ev):

   -45.7111 -22.1201 -22.0900 -22.0895 -13.9322  -6.0382  -5.4895  -5.4415
     0.3258   0.5430   0.8337   6.3139   7.1266   7.2971   7.3939   8.0523
     8.3127   9.5809   9.9051   9.9994

          k = 0.2500 0.3750 0.3750 (  3314 PWs)   bands (ev):

   -45.7109 -22.1107 -22.1103 -22.0892 -13.9163  -5.8696  -5.4904  -5.4579
     0.2757   0.3145   0.7378   6.4013   6.8364   7.1924   7.5052   8.0233
     8.1217   9.7775   9.9496  10.2606

          k = 0.2500 0.3750-0.5000 (  3326 PWs)   bands (ev):

   -45.7107 -22.1188 -22.1100 -22.0888 -13.9036  -5.8043  -5.4595  -5.4579
     0.2179   0.3286   0.5813   6.2361   6.7586   7.2387   7.4344   8.0342
     8.1024   9.8444   9.9583  10.3510

          k = 0.2500-0.5000-0.5000 (  3312 PWs)   bands (ev):

   -45.7106 -22.1183 -22.1183 -22.0884 -13.8917  -5.6852  -5.4658  -5.4658
     0.2442   0.2442   0.4111   6.1234   6.5940   7.3048   7.4882   8.0023
     8.0023   9.9858   9.9858  10.4770

          k = 0.3750 0.3750 0.3750 (  3310 PWs)   bands (ev):

   -45.7105 -22.1097 -22.1093 -22.1093 -13.8882  -5.6628  -5.4287  -5.4287
     0.0912   0.0912   0.4133   6.3122   6.8384   6.8384   7.6134   8.0775
     8.0775  10.1363  10.1363  10.3302

          k = 0.3750 0.3750-0.5000 (  3338 PWs)   bands (ev):

   -45.7103 -22.1178 -22.1091 -22.1089 -13.8765  -5.5771  -5.4136  -5.4022
     0.0006   0.0802   0.2254   6.1585   6.7272   6.8398   7.7066   8.0936
     8.1072  10.1729  10.2805  10.4032

          k = 0.3750-0.5000-0.5000 (  3324 PWs)   bands (ev):

   -45.7102 -22.1173 -22.1173 -22.1085 -13.8651  -5.4615  -5.3951  -5.3951
    -0.0191  -0.0191   0.0217   6.0456   6.6004   6.7988   7.8970   8.1031
     8.1031  10.3393  10.3393  10.5049

          k =-0.5000-0.5000-0.5000 (  3328 PWs)   bands (ev):

   -45.7100 -22.1169 -22.1169 -22.1169 -13.8540  -5.3647  -5.3647  -5.3647
    -0.1251  -0.1251  -0.1251   5.9468   6.6031   6.6031   8.1272   8.1272
     8.1272  10.5166  10.5166  10.5166

     highest occupied level (ev):    10.5166

!    total energy              =    -735.72593146 Ry

     total all-electron energy =    -18421.419167 Ry
     estimated scf accuracy    <          1.7E-14 Ry

     The total energy is the sum of the following terms:
     one-electron contribution =     -65.54687587 Ry
     hartree contribution      =      59.10235077 Ry
     xc contribution           =     -60.86191926 Ry
     ewald contribution        =    -208.69847807 Ry
     one-center paw contrib.   =    -459.72100903 Ry

     convergence has been achieved in  70 iterations

     Forces acting on atoms (cartesian axes, Ry/au):

     atom    1 type  1   force =     0.00000000    0.00000000    0.00000000
     atom    2 type  2   force =     0.00000000    0.00000000    0.00000000
     atom    3 type  3   force =     0.00000000    0.00000000    0.00000000
     atom    4 type  3   force =     0.00000000    0.00000000    0.00000000
     atom    5 type  3   force =     0.00000000    0.00000000    0.00000000

     Total force =     0.000000     Total SCF correction =     0.000000


     Computing stress (Cartesian axis) and pressure

          total   stress  (Ry/bohr**3)                   (kbar)     P=        0.00
   0.00000000   0.00000000   0.00000000            0.00        0.00        0.00
   0.00000000   0.00000000   0.00000000            0.00        0.00        0.00
   0.00000000   0.00000000   0.00000000            0.00        0.00        0.00


     Writing output data file ./tmp/BaTiO3_pbesol.save/

     init_run     :      0.82s CPU      0.86s WALL (       1 calls)
     electrons    :    117.80s CPU    120.00s WALL (       1 calls)
     forces       :      0.28s CPU      0.29s WALL (       1 calls)
     stress       :      0.74s CPU      0.74s WALL (       1 calls)

     Called by init_run:
     wfcinit      :      0.39s CPU      0.40s WALL (       1 calls)
     potinit      :      0.14s CPU      0.15s WALL (       1 calls)
     hinit0       :      0.18s CPU      0.18s WALL (       1 calls)

     Called by electrons:
     c_bands      :     95.80s CPU     97.65s WALL (      70 calls)
     sum_band     :     10.82s CPU     11.04s WALL (      70 calls)
     v_of_rho     :      0.64s CPU      0.68s WALL (      71 calls)
     newd         :      3.17s CPU      3.20s WALL (      71 calls)
     PAW_pot      :      7.29s CPU      7.37s WALL (      71 calls)
     mix_rho      :      0.13s CPU      0.13s WALL (      70 calls)

     Called by c_bands:
     init_us_2    :      1.02s CPU      1.04s WALL (    5005 calls)
     cegterg      :     92.67s CPU     94.48s WALL (    2451 calls)

     Called by *egterg:
     cdiaghg      :     12.48s CPU     12.78s WALL (   16863 calls)
     h_psi        :     44.65s CPU     45.81s WALL (   16898 calls)
     s_psi        :      8.49s CPU      8.55s WALL (   16898 calls)
     g_psi        :      0.34s CPU      0.34s WALL (   14412 calls)

     Called by h_psi:
     h_psi:calbec :      8.11s CPU      8.39s WALL (   16898 calls)
     vloc_psi     :     27.87s CPU     28.66s WALL (   16898 calls)
     add_vuspsi   :      8.40s CPU      8.49s WALL (   16898 calls)

     General routines
     calbec       :     10.51s CPU     10.86s WALL (   19523 calls)
     fft          :      0.41s CPU      0.44s WALL (     946 calls)
     ffts         :      0.02s CPU      0.02s WALL (     141 calls)
     fftw         :     27.96s CPU     28.76s WALL (  385978 calls)
     interpolate  :      0.05s CPU      0.05s WALL (      71 calls)

     Parallel routines
     fft_scatt_xy :      3.73s CPU      3.83s WALL (  387065 calls)
     fft_scatt_yz :      7.19s CPU      7.41s WALL (  387065 calls)

     PWSCF        :   2m 0.10s CPU   2m 2.38s WALL


   This run was terminated on:  21:31:54  15Jul2026            

=------------------------------------------------------------------------------=
   JOB DONE.
=------------------------------------------------------------------------------=
