
     Program PWSCF v.7.4 starts on  6Jul2026 at 10: 2:21 

     This program is part of the open-source Quantum ESPRESSO suite
     for quantum simulation of materials; please cite
         "P. Giannozzi et al., J. Phys.:Condens. Matter 21 395502 (2009);
         "P. Giannozzi et al., J. Phys.:Condens. Matter 29 465901 (2017);
         "P. Giannozzi et al., J. Chem. Phys. 152 154105 (2020);
          URL http://www.quantum-espresso.org", 
     in publications or presentations arising from this work. More details at
     http://www.quantum-espresso.org/quote

     Parallel version (MPI & OpenMP), running on     112 processor cores
     Number of MPI processes:                 8
     Threads/MPI process:                    14

     MPI processes distributed on     1 nodes
     0 MiB available memory on the printing compute node when the environment starts

     Waiting for input...
     Reading input from standard input

     Current dimensions of program PWSCF are:
     Max number of different atomic species (ntypx) = 10
     Max number of k-points (npk) =  40000
     Max angular momentum in pseudopotentials (lmaxx) =  4
     file Ba.pbe-spn-kjpaw_psl.1.0.0.UPF: wavefunction(s)  5S 6S renormalized
     file Ti.pbe-spn-kjpaw_psl.1.0.0.UPF: wavefunction(s)  3S 3P 3D renormalized
     file O.pbe-n-kjpaw_psl.1.0.0.UPF: wavefunction(s)  2S 2P renormalized

     R & G space division:  proc/nbgrp/npool/nimage =       8
     Subspace diagonalization in iterative solution of the eigenvalue problem:
     a serial algorithm will be used


     Parallelization info
     --------------------
     sticks:   dense  smooth     PW     G-vecs:    dense   smooth      PW
     Min         273     136     41                 9619     3398     557
     Max         274     137     43                 9624     3401     558
     Sum        2185    1093    333                76957    27201    4457

     Using Slab Decomposition



     bravais-lattice index     =            1
     lattice parameter (alat)  =       7.5700  a.u.
     unit-cell volume          =     433.7981 (a.u.)^3
     number of atoms/cell      =            5
     number of atomic types    =            3
     number of electrons       =        40.00
     number of Kohn-Sham states=           20
     kinetic-energy cutoff     =      60.0000  Ry
     charge density cutoff     =     480.0000  Ry
     scf convergence threshold =      1.0E-10
     mixing beta               =       0.3000
     number of iterations used =            8  plain     mixing
     energy convergence thresh.=      1.0E-06
     force convergence thresh. =      1.0E-05
     press convergence thresh. =      1.0E-01
     Exchange-correlation= SLA  PW   PBX  PBC
                           (   1   4   3   4   0   0   0)
     nstep                     =           50


     celldm(1)=   7.570000  celldm(2)=   0.000000  celldm(3)=   0.000000
     celldm(4)=   0.000000  celldm(5)=   0.000000  celldm(6)=   0.000000

     crystal axes: (cart. coord. in units of alat)
               a(1) = (   1.000000   0.000000   0.000000 )  
               a(2) = (   0.000000   1.000000   0.000000 )  
               a(3) = (   0.000000   0.000000   1.000000 )  

     reciprocal axes: (cart. coord. in units 2 pi/alat)
               b(1) = (  1.000000  0.000000  0.000000 )  
               b(2) = (  0.000000  1.000000  0.000000 )  
               b(3) = (  0.000000  0.000000  1.000000 )  


     PseudoPot. # 1 for Ba read from file:
     ./pseudo/Ba.pbe-spn-kjpaw_psl.1.0.0.UPF
     MD5 check sum: a94004ef8cdd1ef6024fa921b83633cc
     Pseudo is Projector augmented-wave + core cor, Zval = 10.0
     Generated using &quot;atomic&quot; code by A. Dal Corso  v.6.2.2
     Shape of augmentation charge: PSQ
     Using radial grid of 1251 points,  7 beta functions with: 
                l(1) =   0
                l(2) =   0
                l(3) =   0
                l(4) =   1
                l(5) =   1
                l(6) =   2
                l(7) =   2
     Q(r) pseudized with 0 coefficients 


     PseudoPot. # 2 for Ti read from file:
     ./pseudo/Ti.pbe-spn-kjpaw_psl.1.0.0.UPF
     MD5 check sum: 7ea84e4330344cbc938d542ff58a5c10
     Pseudo is Projector augmented-wave + core cor, Zval = 12.0
     Generated using &quot;atomic&quot; code by A. Dal Corso  v.6.2.2
     Shape of augmentation charge: PSQ
     Using radial grid of 1177 points,  6 beta functions with: 
                l(1) =   0
                l(2) =   0
                l(3) =   1
                l(4) =   1
                l(5) =   2
                l(6) =   2
     Q(r) pseudized with 0 coefficients 


     PseudoPot. # 3 for O  read from file:
     ./pseudo/O.pbe-n-kjpaw_psl.1.0.0.UPF
     MD5 check sum: 62c11a45e085f03adfe5482d7843b034
     Pseudo is Projector augmented-wave + core cor, Zval =  6.0
     Generated using &quot;atomic&quot; code by A. Dal Corso  v.6.3
     Shape of augmentation charge: PSQ
     Using radial grid of 1095 points,  4 beta functions with: 
                l(1) =   0
                l(2) =   0
                l(3) =   1
                l(4) =   1
     Q(r) pseudized with 0 coefficients 


     atomic species   valence    mass     pseudopotential
     Ba               10.00   137.32700     Ba( 1.00)
     Ti               12.00    47.86700     Ti( 1.00)
     O                 6.00    15.99900     O ( 1.00)

     48 Sym. Ops., with inversion, found



   Cartesian axes

     site n.     atom                  positions (alat units)
         1        Ba     tau(   1) = (   0.0000000   0.0000000   0.0000000  )
         2        Ti     tau(   2) = (   0.5000000   0.5000000   0.5000000  )
         3        O      tau(   3) = (   0.5000000   0.5000000   0.0000000  )
         4        O      tau(   4) = (   0.5000000   0.0000000   0.5000000  )
         5        O      tau(   5) = (   0.0000000   0.5000000   0.5000000  )

     number of k points=    35
                       cart. coord. in units 2pi/alat
        k(    1) = (   0.0000000   0.0000000   0.0000000), wk =   0.0039062
        k(    2) = (   0.0000000   0.0000000   0.1250000), wk =   0.0234375
        k(    3) = (   0.0000000   0.0000000   0.2500000), wk =   0.0234375
        k(    4) = (   0.0000000   0.0000000   0.3750000), wk =   0.0234375
        k(    5) = (   0.0000000   0.0000000  -0.5000000), wk =   0.0117188
        k(    6) = (   0.0000000   0.1250000   0.1250000), wk =   0.0468750
        k(    7) = (   0.0000000   0.1250000   0.2500000), wk =   0.0937500
        k(    8) = (   0.0000000   0.1250000   0.3750000), wk =   0.0937500
        k(    9) = (   0.0000000   0.1250000  -0.5000000), wk =   0.0468750
        k(   10) = (   0.0000000   0.2500000   0.2500000), wk =   0.0468750
        k(   11) = (   0.0000000   0.2500000   0.3750000), wk =   0.0937500
        k(   12) = (   0.0000000   0.2500000  -0.5000000), wk =   0.0468750
        k(   13) = (   0.0000000   0.3750000   0.3750000), wk =   0.0468750
        k(   14) = (   0.0000000   0.3750000  -0.5000000), wk =   0.0468750
        k(   15) = (   0.0000000  -0.5000000  -0.5000000), wk =   0.0117188
        k(   16) = (   0.1250000   0.1250000   0.1250000), wk =   0.0312500
        k(   17) = (   0.1250000   0.1250000   0.2500000), wk =   0.0937500
        k(   18) = (   0.1250000   0.1250000   0.3750000), wk =   0.0937500
        k(   19) = (   0.1250000   0.1250000  -0.5000000), wk =   0.0468750
        k(   20) = (   0.1250000   0.2500000   0.2500000), wk =   0.0937500
        k(   21) = (   0.1250000   0.2500000   0.3750000), wk =   0.1875000
        k(   22) = (   0.1250000   0.2500000  -0.5000000), wk =   0.0937500
        k(   23) = (   0.1250000   0.3750000   0.3750000), wk =   0.0937500
        k(   24) = (   0.1250000   0.3750000  -0.5000000), wk =   0.0937500
        k(   25) = (   0.1250000  -0.5000000  -0.5000000), wk =   0.0234375
        k(   26) = (   0.2500000   0.2500000   0.2500000), wk =   0.0312500
        k(   27) = (   0.2500000   0.2500000   0.3750000), wk =   0.0937500
        k(   28) = (   0.2500000   0.2500000  -0.5000000), wk =   0.0468750
        k(   29) = (   0.2500000   0.3750000   0.3750000), wk =   0.0937500
        k(   30) = (   0.2500000   0.3750000  -0.5000000), wk =   0.0937500
        k(   31) = (   0.2500000  -0.5000000  -0.5000000), wk =   0.0234375
        k(   32) = (   0.3750000   0.3750000   0.3750000), wk =   0.0312500
        k(   33) = (   0.3750000   0.3750000  -0.5000000), wk =   0.0468750
        k(   34) = (   0.3750000  -0.5000000  -0.5000000), wk =   0.0234375
        k(   35) = (  -0.5000000  -0.5000000  -0.5000000), wk =   0.0039062

     Dense  grid:    76957 G-vectors     FFT dimensions: (  54,  54,  54)

     Smooth grid:    27201 G-vectors     FFT dimensions: (  40,  40,  40)

     Estimated max dynamical RAM per process >      57.38 MB

     Estimated total dynamical RAM >     459.03 MB

     Check: negative core charge=   -0.000002

     Initial potential from superposition of free atoms

     starting charge      39.9815, renormalised to      40.0000
     Starting wfcs are   27 randomized atomic wfcs
     Checking if some PAW data can be deallocated... 

     total cpu time spent up to now is        6.6 secs

     Self-consistent Calculation

     iteration #  1     ecut=    60.00 Ry     beta= 0.30
     Davidson diagonalization with overlap
     ethr =  1.00E-02,  avg # of iterations =  1.0

     total cpu time spent up to now is       17.8 secs

     total energy              =    -744.82516410 Ry
     estimated scf accuracy    <       2.43321835 Ry

     iteration #  2     ecut=    60.00 Ry     beta= 0.30
     Davidson diagonalization with overlap
     ethr =  6.08E-03,  avg # of iterations =  2.1

     total cpu time spent up to now is       31.6 secs

     total energy              =    -745.22247295 Ry
     estimated scf accuracy    <       0.24693071 Ry

     iteration #  3     ecut=    60.00 Ry     beta= 0.30
     Davidson diagonalization with overlap
     c_bands:  2 eigenvalues not converged
     c_bands:  1 eigenvalues not converged
     ethr =  6.17E-04,  avg # of iterations = 15.0

     total cpu time spent up to now is       65.2 secs

     total energy              =    -745.45849154 Ry
     estimated scf accuracy    <       4.13275575 Ry

     iteration #  4     ecut=    60.00 Ry     beta= 0.30
     Davidson diagonalization with overlap
     ethr =  6.17E-04,  avg # of iterations =  7.5

     total cpu time spent up to now is       81.1 secs

     total energy              =    -744.95538891 Ry
     estimated scf accuracy    <       1.38978897 Ry

     iteration #  5     ecut=    60.00 Ry     beta= 0.30
     Davidson diagonalization with overlap
     ethr =  6.17E-04,  avg # of iterations =  8.5

     total cpu time spent up to now is      106.0 secs

     total energy              =    -745.71056478 Ry
     estimated scf accuracy    <       0.53234804 Ry

     iteration #  6     ecut=    60.00 Ry     beta= 0.30
     Davidson diagonalization with overlap
     ethr =  6.17E-04,  avg # of iterations =  1.5

     total cpu time spent up to now is      117.6 secs

     total energy              =    -745.55416656 Ry
     estimated scf accuracy    <       0.47421321 Ry

     iteration #  7     ecut=    60.00 Ry     beta= 0.30
     Davidson diagonalization with overlap
     ethr =  6.17E-04,  avg # of iterations =  1.7

     total cpu time spent up to now is      129.4 secs

     total energy              =    -745.57425882 Ry
     estimated scf accuracy    <       0.21037431 Ry

     iteration #  8     ecut=    60.00 Ry     beta= 0.30
     Davidson diagonalization with overlap
     ethr =  5.26E-04,  avg # of iterations =  1.1

     total cpu time spent up to now is      141.1 secs

     total energy              =    -745.57999535 Ry
     estimated scf accuracy    <       0.20649958 Ry

     iteration #  9     ecut=    60.00 Ry     beta= 0.30
     Davidson diagonalization with overlap
     ethr =  5.16E-04,  avg # of iterations =  1.2

     total cpu time spent up to now is      152.8 secs

     total energy              =    -745.59310414 Ry
     estimated scf accuracy    <       0.18070237 Ry

     iteration # 10     ecut=    60.00 Ry     beta= 0.30
     Davidson diagonalization with overlap
     ethr =  4.52E-04,  avg # of iterations =  1.0

     total cpu time spent up to now is      164.4 secs

     total energy              =    -745.57702832 Ry
     estimated scf accuracy    <       0.19142805 Ry

     iteration # 11     ecut=    60.00 Ry     beta= 0.30
     Davidson diagonalization with overlap
     ethr =  4.52E-04,  avg # of iterations =  1.4

     total cpu time spent up to now is      175.8 secs

     total energy              =    -745.54935968 Ry
     estimated scf accuracy    <       0.15200147 Ry

     iteration # 12     ecut=    60.00 Ry     beta= 0.30
     Davidson diagonalization with overlap
     ethr =  3.80E-04,  avg # of iterations =  3.2

     total cpu time spent up to now is      188.8 secs

     total energy              =    -745.55207134 Ry
     estimated scf accuracy    <       0.07210312 Ry

     iteration # 13     ecut=    60.00 Ry     beta= 0.30
     Davidson diagonalization with overlap
     ethr =  1.80E-04,  avg # of iterations =  8.8

     total cpu time spent up to now is      211.2 secs

     total energy              =    -745.61953954 Ry
     estimated scf accuracy    <       0.20085246 Ry

     iteration # 14     ecut=    60.00 Ry     beta= 0.30
     Davidson diagonalization with overlap
     ethr =  1.80E-04,  avg # of iterations =  1.7

     total cpu time spent up to now is      223.0 secs

     total energy              =    -745.48414566 Ry
     estimated scf accuracy    <       0.18857096 Ry

     iteration # 15     ecut=    60.00 Ry     beta= 0.30
     Davidson diagonalization with overlap
     ethr =  1.80E-04,  avg # of iterations =  8.9

     total cpu time spent up to now is      248.5 secs

     total energy              =    -745.67743045 Ry
     estimated scf accuracy    <       0.31890167 Ry

     iteration # 16     ecut=    60.00 Ry     beta= 0.30
     Davidson diagonalization with overlap
     ethr =  1.80E-04,  avg # of iterations =  1.7

     total cpu time spent up to now is      260.5 secs

     total energy              =    -745.66632467 Ry
     estimated scf accuracy    <       0.34309967 Ry

     iteration # 17     ecut=    60.00 Ry     beta= 0.30
     Davidson diagonalization with overlap
     ethr =  1.80E-04,  avg # of iterations =  1.3

     total cpu time spent up to now is      272.0 secs

     total energy              =    -745.62001385 Ry
     estimated scf accuracy    <       0.33632306 Ry

     iteration # 18     ecut=    60.00 Ry     beta= 0.30
     Davidson diagonalization with overlap
     ethr =  1.80E-04,  avg # of iterations =  1.1

     total cpu time spent up to now is      283.6 secs

     total energy              =    -745.65890435 Ry
     estimated scf accuracy    <       0.25979369 Ry

     iteration # 19     ecut=    60.00 Ry     beta= 0.30
     Davidson diagonalization with overlap
     ethr =  1.80E-04,  avg # of iterations =  1.3

     total cpu time spent up to now is      295.1 secs

     total energy              =    -745.49338804 Ry
     estimated scf accuracy    <       0.33076729 Ry

     iteration # 20     ecut=    60.00 Ry     beta= 0.30
     Davidson diagonalization with overlap
     ethr =  1.80E-04,  avg # of iterations =  6.2

     total cpu time spent up to now is      318.5 secs

     total energy              =    -745.56845497 Ry
     estimated scf accuracy    <       0.05336406 Ry

     iteration # 21     ecut=    60.00 Ry     beta= 0.30
     Davidson diagonalization with overlap
     ethr =  1.33E-04,  avg # of iterations =  2.0

     total cpu time spent up to now is      331.8 secs

     total energy              =    -745.58805770 Ry
     estimated scf accuracy    <       0.02180601 Ry

     iteration # 22     ecut=    60.00 Ry     beta= 0.30
     Davidson diagonalization with overlap
     ethr =  5.45E-05,  avg # of iterations =  9.3

     total cpu time spent up to now is      357.1 secs

     total energy              =    -745.52001709 Ry
     estimated scf accuracy    <       0.36161464 Ry

     iteration # 23     ecut=    60.00 Ry     beta= 0.30
     Davidson diagonalization with overlap
     ethr =  5.45E-05,  avg # of iterations =  9.6

     total cpu time spent up to now is      383.2 secs

     total energy              =    -745.56832076 Ry
     estimated scf accuracy    <       0.00554312 Ry

     iteration # 24     ecut=    60.00 Ry     beta= 0.30
     Davidson diagonalization with overlap
     c_bands:  4 eigenvalues not converged
     c_bands:  3 eigenvalues not converged
     c_bands:  5 eigenvalues not converged
     c_bands:  3 eigenvalues not converged
     c_bands:  4 eigenvalues not converged
     c_bands:  2 eigenvalues not converged
     c_bands:  1 eigenvalues not converged
     c_bands:  1 eigenvalues not converged
     ethr =  1.39E-05,  avg # of iterations = 16.9

     total cpu time spent up to now is      424.3 secs

     total energy              =    -745.43444110 Ry
     estimated scf accuracy    <       0.57132043 Ry

     iteration # 25     ecut=    60.00 Ry     beta= 0.30
     Davidson diagonalization with overlap
     c_bands:  2 eigenvalues not converged
     c_bands:  2 eigenvalues not converged
     c_bands:  2 eigenvalues not converged
     c_bands:  3 eigenvalues not converged
     c_bands:  2 eigenvalues not converged
     ethr =  1.39E-05,  avg # of iterations = 17.1

     total cpu time spent up to now is      470.0 secs

     total energy              =    -745.58449020 Ry
     estimated scf accuracy    <       0.07950024 Ry

     iteration # 26     ecut=    60.00 Ry     beta= 0.30
     Davidson diagonalization with overlap
     ethr =  1.39E-05,  avg # of iterations =  1.3

     total cpu time spent up to now is      482.0 secs

     total energy              =    -745.58897273 Ry
     estimated scf accuracy    <       0.06867716 Ry

     iteration # 27     ecut=    60.00 Ry     beta= 0.30
     Davidson diagonalization with overlap
     ethr =  1.39E-05,  avg # of iterations =  1.1

     total cpu time spent up to now is      494.1 secs

     total energy              =    -745.56771512 Ry
     estimated scf accuracy    <       0.07536756 Ry

     iteration # 28     ecut=    60.00 Ry     beta= 0.30
     Davidson diagonalization with overlap
     ethr =  1.39E-05,  avg # of iterations =  8.4

     total cpu time spent up to now is      516.5 secs

     total energy              =    -745.57507772 Ry
     estimated scf accuracy    <       0.00896092 Ry

     iteration # 29     ecut=    60.00 Ry     beta= 0.30
     Davidson diagonalization with overlap
     ethr =  1.39E-05,  avg # of iterations =  1.1

     total cpu time spent up to now is      528.1 secs

     total energy              =    -745.57149364 Ry
     estimated scf accuracy    <       0.01062957 Ry

     iteration # 30     ecut=    60.00 Ry     beta= 0.30
     Davidson diagonalization with overlap
     ethr =  1.39E-05,  avg # of iterations =  4.4

     total cpu time spent up to now is      542.9 secs

     total energy              =    -745.57343213 Ry
     estimated scf accuracy    <       0.00284506 Ry

     iteration # 31     ecut=    60.00 Ry     beta= 0.30
     Davidson diagonalization with overlap
     ethr =  7.11E-06,  avg # of iterations =  2.0

     total cpu time spent up to now is      555.4 secs

     total energy              =    -745.57391023 Ry
     estimated scf accuracy    <       0.00312041 Ry

     iteration # 32     ecut=    60.00 Ry     beta= 0.30
     Davidson diagonalization with overlap
     ethr =  7.11E-06,  avg # of iterations =  1.4

     total cpu time spent up to now is      567.1 secs

     total energy              =    -745.57434932 Ry
     estimated scf accuracy    <       0.00341359 Ry

     iteration # 33     ecut=    60.00 Ry     beta= 0.30
     Davidson diagonalization with overlap
     ethr =  7.11E-06,  avg # of iterations =  1.3

     total cpu time spent up to now is      578.7 secs

     total energy              =    -745.57638383 Ry
     estimated scf accuracy    <       0.00401335 Ry

     iteration # 34     ecut=    60.00 Ry     beta= 0.30
     Davidson diagonalization with overlap
     ethr =  7.11E-06,  avg # of iterations =  5.5

     total cpu time spent up to now is      597.3 secs

     total energy              =    -745.56987275 Ry
     estimated scf accuracy    <       0.01565182 Ry

     iteration # 35     ecut=    60.00 Ry     beta= 0.30
     Davidson diagonalization with overlap
     ethr =  7.11E-06,  avg # of iterations =  8.4

     total cpu time spent up to now is      621.8 secs

     total energy              =    -745.57391583 Ry
     estimated scf accuracy    <       0.00082250 Ry

     iteration # 36     ecut=    60.00 Ry     beta= 0.30
     Davidson diagonalization with overlap
     ethr =  2.06E-06,  avg # of iterations =  4.2

     total cpu time spent up to now is      635.6 secs

     total energy              =    -745.57386463 Ry
     estimated scf accuracy    <       0.00081146 Ry

     iteration # 37     ecut=    60.00 Ry     beta= 0.30
     Davidson diagonalization with overlap
     ethr =  2.03E-06,  avg # of iterations =  2.0

     total cpu time spent up to now is      647.5 secs

     total energy              =    -745.57383732 Ry
     estimated scf accuracy    <       0.00045722 Ry

     iteration # 38     ecut=    60.00 Ry     beta= 0.30
     Davidson diagonalization with overlap
     ethr =  1.14E-06,  avg # of iterations =  2.3

     total cpu time spent up to now is      659.7 secs

     total energy              =    -745.57384486 Ry
     estimated scf accuracy    <       0.00031047 Ry

     iteration # 39     ecut=    60.00 Ry     beta= 0.30
     Davidson diagonalization with overlap
     ethr =  7.76E-07,  avg # of iterations =  2.7

     total cpu time spent up to now is      671.9 secs

     total energy              =    -745.57392246 Ry
     estimated scf accuracy    <       0.00021282 Ry

     iteration # 40     ecut=    60.00 Ry     beta= 0.30
     Davidson diagonalization with overlap
     ethr =  5.32E-07,  avg # of iterations =  2.2

     total cpu time spent up to now is      683.9 secs

     total energy              =    -745.57382937 Ry
     estimated scf accuracy    <       0.00032523 Ry

     iteration # 41     ecut=    60.00 Ry     beta= 0.30
     Davidson diagonalization with overlap
     ethr =  5.32E-07,  avg # of iterations =  4.5

     total cpu time spent up to now is      697.4 secs

     total energy              =    -745.57385784 Ry
     estimated scf accuracy    <       0.00004821 Ry

     iteration # 42     ecut=    60.00 Ry     beta= 0.30
     Davidson diagonalization with overlap
     ethr =  1.21E-07,  avg # of iterations = 10.1

     total cpu time spent up to now is      720.9 secs

     total energy              =    -745.57389636 Ry
     estimated scf accuracy    <       0.00018993 Ry

     iteration # 43     ecut=    60.00 Ry     beta= 0.30
     Davidson diagonalization with overlap
     ethr =  1.21E-07,  avg # of iterations =  2.7

     total cpu time spent up to now is      734.6 secs

     total energy              =    -745.57398586 Ry
     estimated scf accuracy    <       0.00010493 Ry

     iteration # 44     ecut=    60.00 Ry     beta= 0.30
     Davidson diagonalization with overlap
     ethr =  1.21E-07,  avg # of iterations =  7.9

     total cpu time spent up to now is      754.8 secs

     total energy              =    -745.57397942 Ry
     estimated scf accuracy    <       0.00047377 Ry

     iteration # 45     ecut=    60.00 Ry     beta= 0.30
     Davidson diagonalization with overlap
     ethr =  1.21E-07,  avg # of iterations =  1.3

     total cpu time spent up to now is      766.6 secs

     total energy              =    -745.57376407 Ry
     estimated scf accuracy    <       0.00043092 Ry

     iteration # 46     ecut=    60.00 Ry     beta= 0.30
     Davidson diagonalization with overlap
     ethr =  1.21E-07,  avg # of iterations = 12.1

     total cpu time spent up to now is      795.7 secs

     total energy              =    -745.57391458 Ry
     estimated scf accuracy    <       0.00016812 Ry

     iteration # 47     ecut=    60.00 Ry     beta= 0.30
     Davidson diagonalization with overlap
     ethr =  1.21E-07,  avg # of iterations =  1.2

     total cpu time spent up to now is      807.5 secs

     total energy              =    -745.57393313 Ry
     estimated scf accuracy    <       0.00012674 Ry

     iteration # 48     ecut=    60.00 Ry     beta= 0.30
     Davidson diagonalization with overlap
     ethr =  1.21E-07,  avg # of iterations =  1.5

     total cpu time spent up to now is      819.7 secs

     total energy              =    -745.57384806 Ry
     estimated scf accuracy    <       0.00016100 Ry

     iteration # 49     ecut=    60.00 Ry     beta= 0.30
     Davidson diagonalization with overlap
     ethr =  1.21E-07,  avg # of iterations =  8.9

     total cpu time spent up to now is      842.3 secs

     total energy              =    -745.57389900 Ry
     estimated scf accuracy    <       0.00002958 Ry

     iteration # 50     ecut=    60.00 Ry     beta= 0.30
     Davidson diagonalization with overlap
     ethr =  7.39E-08,  avg # of iterations =  1.7

     total cpu time spent up to now is      853.9 secs

     total energy              =    -745.57389636 Ry
     estimated scf accuracy    <       0.00001710 Ry

     iteration # 51     ecut=    60.00 Ry     beta= 0.30
     Davidson diagonalization with overlap
     ethr =  4.27E-08,  avg # of iterations =  3.1

     total cpu time spent up to now is      867.4 secs

     total energy              =    -745.57389813 Ry
     estimated scf accuracy    <       0.00000593 Ry

     iteration # 52     ecut=    60.00 Ry     beta= 0.30
     Davidson diagonalization with overlap
     ethr =  1.48E-08,  avg # of iterations =  6.0

     total cpu time spent up to now is      882.7 secs

     total energy              =    -745.57389981 Ry
     estimated scf accuracy    <       0.00000238 Ry

     iteration # 53     ecut=    60.00 Ry     beta= 0.30
     Davidson diagonalization with overlap
     ethr =  5.95E-09,  avg # of iterations =  3.7

     total cpu time spent up to now is      896.6 secs

     total energy              =    -745.57389908 Ry
     estimated scf accuracy    <       0.00000164 Ry

     iteration # 54     ecut=    60.00 Ry     beta= 0.30
     Davidson diagonalization with overlap
     ethr =  4.11E-09,  avg # of iterations = 11.8

     total cpu time spent up to now is      925.1 secs

     total energy              =    -745.57389779 Ry
     estimated scf accuracy    <       0.00002095 Ry

     iteration # 55     ecut=    60.00 Ry     beta= 0.30
     Davidson diagonalization with overlap
     ethr =  4.11E-09,  avg # of iterations =  8.4

     total cpu time spent up to now is      948.1 secs

     total energy              =    -745.57390047 Ry
     estimated scf accuracy    <       0.00000099 Ry

     iteration # 56     ecut=    60.00 Ry     beta= 0.30
     Davidson diagonalization with overlap
     ethr =  2.47E-09,  avg # of iterations =  1.3

     total cpu time spent up to now is      959.6 secs

     total energy              =    -745.57389970 Ry
     estimated scf accuracy    <       0.00000148 Ry

     iteration # 57     ecut=    60.00 Ry     beta= 0.30
     Davidson diagonalization with overlap
     ethr =  2.47E-09,  avg # of iterations =  7.6

     total cpu time spent up to now is      978.6 secs

     total energy              =    -745.57390077 Ry
     estimated scf accuracy    <       0.00000021 Ry

     iteration # 58     ecut=    60.00 Ry     beta= 0.30
     Davidson diagonalization with overlap
     c_bands:  2 eigenvalues not converged
     ethr =  5.14E-10,  avg # of iterations = 13.1

     total cpu time spent up to now is     1009.4 secs

     total energy              =    -745.57389952 Ry
     estimated scf accuracy    <       0.00000755 Ry

     iteration # 59     ecut=    60.00 Ry     beta= 0.30
     Davidson diagonalization with overlap
     ethr =  5.14E-10,  avg # of iterations = 12.1

     total cpu time spent up to now is     1037.4 secs

     total energy              =    -745.57390085 Ry
     estimated scf accuracy    <       0.00000026 Ry

     iteration # 60     ecut=    60.00 Ry     beta= 0.30
     Davidson diagonalization with overlap
     ethr =  5.14E-10,  avg # of iterations = 10.8

     total cpu time spent up to now is     1063.6 secs

     total energy              =    -745.57390145 Ry
     estimated scf accuracy    <       0.00000560 Ry

     iteration # 61     ecut=    60.00 Ry     beta= 0.30
     Davidson diagonalization with overlap
     ethr =  5.14E-10,  avg # of iterations =  2.0

     total cpu time spent up to now is     1076.0 secs

     total energy              =    -745.57390030 Ry
     estimated scf accuracy    <       0.00000589 Ry

     iteration # 62     ecut=    60.00 Ry     beta= 0.30
     Davidson diagonalization with overlap
     ethr =  5.14E-10,  avg # of iterations =  7.9

     total cpu time spent up to now is     1098.0 secs

     total energy              =    -745.57390029 Ry
     estimated scf accuracy    <       0.00000191 Ry

     iteration # 63     ecut=    60.00 Ry     beta= 0.30
     Davidson diagonalization with overlap
     ethr =  5.14E-10,  avg # of iterations =  4.3

     total cpu time spent up to now is     1112.5 secs

     total energy              =    -745.57390000 Ry
     estimated scf accuracy    <       0.00000099 Ry

     iteration # 64     ecut=    60.00 Ry     beta= 0.30
     Davidson diagonalization with overlap
     ethr =  5.14E-10,  avg # of iterations =  9.2

     total cpu time spent up to now is     1136.3 secs

     total energy              =    -745.57390031 Ry
     estimated scf accuracy    <       0.00000007 Ry

     iteration # 65     ecut=    60.00 Ry     beta= 0.30
     Davidson diagonalization with overlap
     ethr =  1.71E-10,  avg # of iterations =  3.4

     total cpu time spent up to now is     1150.1 secs

     total energy              =    -745.57390028 Ry
     estimated scf accuracy    <       0.00000005 Ry

     iteration # 66     ecut=    60.00 Ry     beta= 0.30
     Davidson diagonalization with overlap
     ethr =  1.23E-10,  avg # of iterations =  8.2

     total cpu time spent up to now is     1170.9 secs

     total energy              =    -745.57390032 Ry
     estimated scf accuracy    <       0.00000004 Ry

     iteration # 67     ecut=    60.00 Ry     beta= 0.30
     Davidson diagonalization with overlap
     ethr =  9.75E-11,  avg # of iterations =  1.6

     total cpu time spent up to now is     1182.4 secs

     total energy              =    -745.57390031 Ry
     estimated scf accuracy    <       0.00000003 Ry

     iteration # 68     ecut=    60.00 Ry     beta= 0.30
     Davidson diagonalization with overlap
     ethr =  8.57E-11,  avg # of iterations =  3.6

     total cpu time spent up to now is     1195.6 secs

     total energy              =    -745.57390031 Ry
     estimated scf accuracy    <          4.2E-09 Ry

     iteration # 69     ecut=    60.00 Ry     beta= 0.30
     Davidson diagonalization with overlap
     ethr =  1.06E-11,  avg # of iterations = 12.4

     total cpu time spent up to now is     1224.4 secs

     total energy              =    -745.57390032 Ry
     estimated scf accuracy    <       0.00000004 Ry

     iteration # 70     ecut=    60.00 Ry     beta= 0.30
     Davidson diagonalization with overlap
     ethr =  1.06E-11,  avg # of iterations =  1.3

     total cpu time spent up to now is     1235.5 secs

     total energy              =    -745.57390031 Ry
     estimated scf accuracy    <       0.00000003 Ry

     iteration # 71     ecut=    60.00 Ry     beta= 0.30
     Davidson diagonalization with overlap
     ethr =  1.06E-11,  avg # of iterations =  6.3

     total cpu time spent up to now is     1252.9 secs

     total energy              =    -745.57390032 Ry
     estimated scf accuracy    <          5.2E-09 Ry

     iteration # 72     ecut=    60.00 Ry     beta= 0.30
     Davidson diagonalization with overlap
     ethr =  1.06E-11,  avg # of iterations =  1.3

     total cpu time spent up to now is     1264.3 secs

     total energy              =    -745.57390032 Ry
     estimated scf accuracy    <          5.2E-09 Ry

     iteration # 73     ecut=    60.00 Ry     beta= 0.30
     Davidson diagonalization with overlap
     ethr =  1.06E-11,  avg # of iterations =  1.1

     total cpu time spent up to now is     1275.5 secs

     total energy              =    -745.57390031 Ry
     estimated scf accuracy    <          6.8E-09 Ry

     iteration # 74     ecut=    60.00 Ry     beta= 0.30
     Davidson diagonalization with overlap
     ethr =  1.06E-11,  avg # of iterations =  4.3

     total cpu time spent up to now is     1289.6 secs

     total energy              =    -745.57390031 Ry
     estimated scf accuracy    <          8.5E-10 Ry

     iteration # 75     ecut=    60.00 Ry     beta= 0.30
     Davidson diagonalization with overlap
     ethr =  2.13E-12,  avg # of iterations =  9.7

     total cpu time spent up to now is     1310.8 secs

     total energy              =    -745.57390032 Ry
     estimated scf accuracy    <          1.2E-09 Ry

     iteration # 76     ecut=    60.00 Ry     beta= 0.30
     Davidson diagonalization with overlap
     ethr =  2.13E-12,  avg # of iterations =  1.5

     total cpu time spent up to now is     1322.6 secs

     total energy              =    -745.57390032 Ry
     estimated scf accuracy    <          1.5E-09 Ry

     iteration # 77     ecut=    60.00 Ry     beta= 0.30
     Davidson diagonalization with overlap
     ethr =  2.13E-12,  avg # of iterations =  1.1

     total cpu time spent up to now is     1333.9 secs

     total energy              =    -745.57390032 Ry
     estimated scf accuracy    <          7.9E-10 Ry

     iteration # 78     ecut=    60.00 Ry     beta= 0.30
     Davidson diagonalization with overlap
     ethr =  1.96E-12,  avg # of iterations =  1.9

     total cpu time spent up to now is     1345.8 secs

     total energy              =    -745.57390032 Ry
     estimated scf accuracy    <          5.1E-10 Ry

     iteration # 79     ecut=    60.00 Ry     beta= 0.30
     Davidson diagonalization with overlap
     ethr =  1.27E-12,  avg # of iterations =  4.2

     total cpu time spent up to now is     1359.1 secs

     total energy              =    -745.57390032 Ry
     estimated scf accuracy    <          1.7E-10 Ry

     iteration # 80     ecut=    60.00 Ry     beta= 0.30
     Davidson diagonalization with overlap
     ethr =  4.31E-13,  avg # of iterations = 10.6

     total cpu time spent up to now is     1384.0 secs

     total energy              =    -745.57390031 Ry
     estimated scf accuracy    <          3.4E-09 Ry

     iteration # 81     ecut=    60.00 Ry     beta= 0.30
     Davidson diagonalization with overlap
     ethr =  4.31E-13,  avg # of iterations = 10.0

     total cpu time spent up to now is     1408.3 secs

     total energy              =    -745.57390032 Ry
     estimated scf accuracy    <          3.1E-10 Ry

     iteration # 82     ecut=    60.00 Ry     beta= 0.30
     Davidson diagonalization with overlap
     c_bands:  4 eigenvalues not converged
     c_bands:  1 eigenvalues not converged
     ethr =  4.31E-13,  avg # of iterations = 15.7

     total cpu time spent up to now is     1448.8 secs

     total energy              =    -745.57390032 Ry
     estimated scf accuracy    <       0.00000002 Ry

     iteration # 83     ecut=    60.00 Ry     beta= 0.30
     Davidson diagonalization with overlap
     ethr =  4.31E-13,  avg # of iterations =  8.8

     total cpu time spent up to now is     1471.9 secs

     total energy              =    -745.57390031 Ry
     estimated scf accuracy    <       0.00000001 Ry

     iteration # 84     ecut=    60.00 Ry     beta= 0.30
     Davidson diagonalization with overlap
     c_bands:  1 eigenvalues not converged
     c_bands:  1 eigenvalues not converged
     c_bands:  2 eigenvalues not converged
     c_bands:  2 eigenvalues not converged
     ethr =  4.31E-13,  avg # of iterations = 16.1

     total cpu time spent up to now is     1513.3 secs

     total energy              =    -745.57390032 Ry
     estimated scf accuracy    <          3.6E-10 Ry

     iteration # 85     ecut=    60.00 Ry     beta= 0.30
     Davidson diagonalization with overlap
     ethr =  4.31E-13,  avg # of iterations =  5.7

     total cpu time spent up to now is     1528.8 secs

     total energy              =    -745.57390032 Ry
     estimated scf accuracy    <          9.5E-10 Ry

     iteration # 86     ecut=    60.00 Ry     beta= 0.30
     Davidson diagonalization with overlap
     ethr =  4.31E-13,  avg # of iterations =  2.8

     total cpu time spent up to now is     1541.8 secs

     total energy              =    -745.57390031 Ry
     estimated scf accuracy    <          1.2E-09 Ry

     iteration # 87     ecut=    60.00 Ry     beta= 0.30
     Davidson diagonalization with overlap
     ethr =  4.31E-13,  avg # of iterations = 11.5

     total cpu time spent up to now is     1570.0 secs

     total energy              =    -745.57390032 Ry
     estimated scf accuracy    <          7.0E-10 Ry

     iteration # 88     ecut=    60.00 Ry     beta= 0.30
     Davidson diagonalization with overlap
     ethr =  4.31E-13,  avg # of iterations =  7.1

     total cpu time spent up to now is     1587.3 secs

     End of self-consistent calculation

          k = 0.0000 0.0000 0.0000 (  3407 PWs)   bands (ev):

   -46.2541 -22.4771 -22.4771 -22.4771 -14.4271  -6.5272  -5.8540  -5.8540
     0.3996   0.3996   0.3996   8.0675   8.0675   8.0675   9.2457   9.2457
     9.2457  10.2117  10.2117  10.2117

          k = 0.0000 0.0000 0.1250 (  3395 PWs)   bands (ev):

   -46.2539 -22.4847 -22.4768 -22.4768 -14.4101  -6.5344  -5.8491  -5.8421
     0.4231   0.4231   0.4609   7.8101   8.0252   8.0252   9.0700   9.0700
     9.1097   9.8171  10.0977  10.0977

          k = 0.0000 0.0000 0.2500 (  3431 PWs)   bands (ev):

   -46.2536 -22.5030 -22.4761 -22.4761 -14.3687  -6.5984  -5.8371  -5.7575
     0.4814   0.4814   0.6069   7.1971   7.8857   7.8857   8.7611   8.7611
     8.8137   9.1196   9.8869   9.8869

          k = 0.0000 0.0000 0.3750 (  3414 PWs)   bands (ev):

   -46.2532 -22.5212 -22.4754 -22.4754 -14.3265  -6.7032  -5.8251  -5.6183
     0.5418   0.5418   0.7507   6.6024   7.6932   7.6932   8.5526   8.5732
     8.5732   8.6010   9.7154   9.7154

          k = 0.0000 0.0000-0.5000 (  3394 PWs)   bands (ev):

   -46.2531 -22.5287 -22.4751 -22.4751 -14.3087  -6.7527  -5.8200  -5.5503
     0.5674   0.5674   0.8097   6.3622   7.6025   7.6025   8.4151   8.4522
     8.5193   8.5193   9.6511   9.6511

          k = 0.0000 0.1250 0.1250 (  3403 PWs)   bands (ev):

   -46.2538 -22.4846 -22.4842 -22.4765 -14.3940  -6.5275  -5.8452  -5.8363
     0.3961   0.4474   0.5467   7.6490   7.8949   7.9944   8.7033   8.9069
     9.2589   9.5588   9.9647   9.9662

          k = 0.0000 0.1250 0.2500 (  3416 PWs)   bands (ev):

   -46.2534 -22.5026 -22.4836 -22.4758 -14.3547  -6.5584  -5.8295  -5.7727
     0.4255   0.5074   0.6559   7.1226   7.7089   7.8804   8.2530   8.6102
     9.0030   9.2503   9.7217   9.7859

          k = 0.0000 0.1250 0.3750 (  3404 PWs)   bands (ev):

   -46.2531 -22.5207 -22.4828 -22.4751 -14.3146  -6.6383  -5.8132  -5.6481
     0.4930   0.5697   0.7224   6.5660   7.5670   7.7005   7.8463   8.4348
     8.7026   9.2063   9.5267   9.5572

          k = 0.0000 0.1250-0.5000 (  3404 PWs)   bands (ev):

   -46.2529 -22.5282 -22.4825 -22.4748 -14.2978  -6.6799  -5.8065  -5.5842
     0.5312   0.5962   0.7384   6.3347   7.5453   7.6107   7.6561   8.3885
     8.6017   9.2559   9.4026   9.4539

          k = 0.0000 0.2500 0.2500 (  3393 PWs)   bands (ev):

   -46.2531 -22.5021 -22.5013 -22.4751 -14.3205  -6.4920  -5.8222  -5.7619
     0.3846   0.5719   0.6772   6.8827   7.3410   7.6749   7.8431   8.3024
     8.8603   9.3362   9.4148   9.8641

          k = 0.0000 0.2500 0.3750 (  3404 PWs)   bands (ev):

   -46.2527 -22.5197 -22.5007 -22.4744 -14.2857  -6.4811  -5.7962  -5.7049
     0.4100   0.6287   0.6390   6.4790   7.0905   7.2447   7.7188   8.1190
     8.8857   9.1679   9.3120   9.8726

          k = 0.0000 0.2500-0.5000 (  3398 PWs)   bands (ev):

   -46.2526 -22.5271 -22.5004 -22.4741 -14.2712  -6.4925  -5.7806  -5.6670
     0.4535   0.5749   0.6677   6.2736   6.9591   7.1579   7.6342   8.0852
     8.9759   9.0752   9.2389   9.8485

          k = 0.0000 0.3750 0.3750 (  3411 PWs)   bands (ev):

   -46.2524 -22.5187 -22.5184 -22.4738 -14.2564  -6.3316  -5.7970  -5.7291
     0.3706   0.5048   0.7115   6.3104   6.6818   6.7456   7.7213   7.8442
     8.8778   9.1213   9.4321  10.1101

          k = 0.0000 0.3750-0.5000 (  3412 PWs)   bands (ev):

   -46.2523 -22.5259 -22.5181 -22.4735 -14.2442  -6.2786  -5.7744  -5.7509
     0.3884   0.4236   0.7424   6.1658   6.4913   6.6570   7.6640   7.7959
     8.7682   9.3359   9.3848  10.1723

          k = 0.0000-0.5000-0.5000 (  3388 PWs)   bands (ev):

   -46.2521 -22.5254 -22.5254 -22.4732 -14.2329  -6.1737  -5.7859  -5.7859
     0.3647   0.3647   0.7744   6.0571   6.3267   6.5050   7.6795   7.6795
     8.6524   9.4811   9.4811  10.2659

          k = 0.1250 0.1250 0.1250 (  3419 PWs)   bands (ev):

   -46.2537 -22.4845 -22.4839 -22.4839 -14.3787  -6.5100  -5.8374  -5.8374
     0.4005   0.4005   0.6449   7.4858   7.8685   7.8685   8.6161   8.6161
     9.2668   9.3917   9.8739   9.8739

          k = 0.1250 0.1250 0.2500 (  3400 PWs)   bands (ev):

   -46.2533 -22.5022 -22.4834 -22.4832 -14.3412  -6.5141  -5.8186  -5.7866
     0.4104   0.4177   0.7470   7.0357   7.6127   7.7787   8.2700   8.2825
     8.8987   9.3715   9.6652   9.7085

          k = 0.1250 0.1250 0.3750 (  3401 PWs)   bands (ev):

   -46.2529 -22.5203 -22.4826 -22.4824 -14.3031  -6.5724  -5.7995  -5.6707
     0.4195   0.5228   0.7541   6.5328   7.4257   7.6607   7.7995   8.1068
     8.9232   9.2437   9.4652   9.4713

          k = 0.1250 0.1250-0.5000 (  3414 PWs)   bands (ev):

   -46.2528 -22.5278 -22.4823 -22.4821 -14.2871  -6.6066  -5.7916  -5.6091
     0.4229   0.6588   0.6623   6.3123   7.4590   7.5189   7.6114   8.0517
     9.0537   9.1824   9.2707   9.3937

          k = 0.1250 0.2500 0.2500 (  3408 PWs)   bands (ev):

   -46.2530 -22.5017 -22.5010 -22.4826 -14.3084  -6.4356  -5.8077  -5.7710
     0.3432   0.3924   0.7999   6.8005   7.3320   7.5535   7.9202   8.1749
     8.5391   9.4514   9.5084   9.7994

          k = 0.1250 0.2500 0.3750 (  3411 PWs)   bands (ev):

   -46.2526 -22.5193 -22.5004 -22.4818 -14.2749  -6.4119  -5.7776  -5.7112
     0.3212   0.4220   0.7443   6.4583   7.0588   7.2810   7.7137   8.0150
     8.5811   9.2795   9.4446   9.8365

          k = 0.1250 0.2500-0.5000 (  3410 PWs)   bands (ev):

   -46.2525 -22.5266 -22.5000 -22.4815 -14.2609  -6.4184  -5.7617  -5.6708
     0.3092   0.4871   0.6689   6.2636   6.9991   7.1743   7.6188   7.9770
     8.6493   9.2847   9.3153   9.8261

          k = 0.1250 0.3750 0.3750 (  3411 PWs)   bands (ev):

   -46.2523 -22.5184 -22.5180 -22.4811 -14.2464  -6.2582  -5.7758  -5.7187
     0.2846   0.3307   0.6713   6.3142   6.7448   6.8202   7.7295   7.8653
     8.4338   9.2946   9.5395  10.1001

          k = 0.1250 0.3750-0.5000 (  3400 PWs)   bands (ev):

   -46.2521 -22.5255 -22.5177 -22.4808 -14.2345  -6.2032  -5.7512  -5.7348
     0.2621   0.3242   0.6195   6.1677   6.6607   6.6937   7.6946   7.8347
     8.3641   9.4624   9.4670  10.1728

          k = 0.1250-0.5000-0.5000 (  3396 PWs)   bands (ev):

   -46.2520 -22.5250 -22.5250 -22.4805 -14.2234  -6.0966  -5.7619  -5.7619
     0.2604   0.2604   0.5829   6.0601   6.5074   6.5978   7.7519   7.7519
     8.2266   9.5632   9.5632  10.2767

          k = 0.2500 0.2500 0.2500 (  3389 PWs)   bands (ev):

   -46.2526 -22.5011 -22.5002 -22.5002 -14.2787  -6.3164  -5.7721  -5.7721
     0.2429   0.2429   0.8039   6.6493   7.3100   7.3100   7.8290   8.0074
     8.0074   9.6332   9.6332   9.7626

          k = 0.2500 0.2500 0.3750 (  3395 PWs)   bands (ev):

   -46.2523 -22.5183 -22.4998 -22.4994 -14.2486  -6.2422  -5.7356  -5.7221
     0.1417   0.2298   0.6630   6.4271   7.0042   7.2910   7.4340   7.9305
     8.1059   9.5005   9.7361   9.8465

          k = 0.2500 0.2500-0.5000 (  3400 PWs)   bands (ev):

   -46.2521 -22.5256 -22.4995 -22.4991 -14.2360  -6.2289  -5.7202  -5.6818
     0.0996   0.2843   0.5433   6.2403   7.0723   7.1805   7.2850   7.9139
     8.1869   9.4460   9.7455   9.8527

          k = 0.2500 0.3750 0.3750 (  3387 PWs)   bands (ev):

   -46.2519 -22.5174 -22.5172 -22.4988 -14.2219  -6.0754  -5.7232  -5.6938
     0.0525   0.0821   0.4595   6.3208   6.7450   7.1121   7.3880   7.9024
     7.9831   9.6331   9.7890  10.0963

          k = 0.2500 0.3750-0.5000 (  3396 PWs)   bands (ev):

   -46.2518 -22.5246 -22.5169 -22.4985 -14.2108  -6.0135  -5.6956  -5.6952
     0.0001   0.0934   0.3225   6.1619   6.6696   7.1518   7.3184   7.8968
     7.9735   9.6942   9.8004  10.1828

          k = 0.2500-0.5000-0.5000 (  3412 PWs)   bands (ev):

   -46.2516 -22.5242 -22.5242 -22.4982 -14.2003  -5.9039  -5.7022  -5.7022
     0.0178   0.0178   0.1764   6.0526   6.5133   7.1974   7.3691   7.8757
     7.8757   9.8242   9.8242  10.3029

          k = 0.3750 0.3750 0.3750 (  3389 PWs)   bands (ev):

   -46.2516 -22.5166 -22.5163 -22.5163 -14.1972  -5.8853  -5.6684  -5.6684
    -0.1143  -0.1143   0.1718   6.2305   6.7474   6.7474   7.4980   7.9242
     7.9242   9.9769   9.9769  10.1640

          k = 0.3750 0.3750-0.5000 (  3396 PWs)   bands (ev):

   -46.2514 -22.5237 -22.5162 -22.5160 -14.1869  -5.8058  -5.6560  -5.6450
    -0.1941  -0.1263   0.0052   6.0844   6.6394   6.7489   7.5759   7.9297
     7.9516  10.0147  10.1143  10.2335

          k = 0.3750-0.5000-0.5000 (  3412 PWs)   bands (ev):

   -46.2513 -22.5233 -22.5233 -22.5157 -14.1769  -5.7004  -5.6395  -5.6395
    -0.2146  -0.2146  -0.1749   5.9759   6.5193   6.7086   7.7413   7.9403
     7.9403  10.1718  10.1718  10.3296

          k =-0.5000-0.5000-0.5000 (  3448 PWs)   bands (ev):

   -46.2512 -22.5230 -22.5230 -22.5230 -14.1671  -5.6126  -5.6126  -5.6126
    -0.3085  -0.3085  -0.3085   5.8808   6.5217   6.5217   7.9541   7.9541
     7.9541  10.3406  10.3406  10.3406

     highest occupied level (ev):    10.3406

!    total energy              =    -745.57390032 Ry
     total all-electron energy =    -18431.130597 Ry
     estimated scf accuracy    <          7.3E-11 Ry

     The total energy is the sum of the following terms:
     one-electron contribution =     -67.98136228 Ry
     hartree contribution      =      60.04077347 Ry
     xc contribution           =     -61.40823291 Ry
     ewald contribution        =    -207.15568078 Ry
     one-center paw contrib.   =    -469.06939781 Ry

     convergence has been achieved in  88 iterations

     Forces acting on atoms (cartesian axes, Ry/au):

     atom    1 type  1   force =     0.00000000    0.00000000    0.00000000
     atom    2 type  2   force =     0.00000000    0.00000000    0.00000000
     atom    3 type  3   force =     0.00000000    0.00000000    0.00000000
     atom    4 type  3   force =     0.00000000    0.00000000    0.00000000
     atom    5 type  3   force =     0.00000000    0.00000000    0.00000000

     Total force =     0.000000     Total SCF correction =     0.000000


     Computing stress (Cartesian axis) and pressure

          total   stress  (Ry/bohr**3)                   (kbar)     P=       24.48
   0.00016641   0.00000000   0.00000000           24.48        0.00        0.00
   0.00000000   0.00016641   0.00000000            0.00       24.48        0.00
   0.00000000   0.00000000   0.00016641            0.00        0.00       24.48


     BFGS Geometry Optimization
     Energy error            =      8.9E-04 Ry
     Gradient error          =      0.0E+00 Ry/Bohr
     Cell gradient error     =      2.4E+01 kbar

     number of scf cycles    =   1
     number of bfgs steps    =   0

     enthalpy           new  =    -745.5739003150 Ry

     new trust radius        =       0.0173299754 bohr
     new conv_thr            =            1.0E-10 Ry

     new unit-cell volume =    439.23483 a.u.^3 (    65.08789 Ang^3 )
     density =      5.94923 g/cm^3

CELL_PARAMETERS (alat=  7.57000000)
   1.004160295   0.000000000   0.000000000
   0.000000000   1.004160295   0.000000000
   0.000000000   0.000000000   1.004160295

ATOMIC_POSITIONS (crystal)
Ba               0.0000000000        0.0000000000        0.0000000000
Ti               0.5000000000        0.5000000000        0.5000000000
O                0.5000000000        0.5000000000        0.0000000000
O                0.5000000000        0.0000000000        0.5000000000
O                0.0000000000        0.5000000000        0.5000000000



     Writing config-only to output data dir ./tmp/BaTiO3_pristine.save/ :
     XML data file
     NEW-OLD atomic charge density approx. for the potential
     New effective cutoffs (rho, wfc):  475.52   59.49

     Check: negative core charge=   -0.000002

     total cpu time spent up to now is     1588.3 secs

     Self-consistent Calculation

     iteration #  1     ecut=    60.00 Ry     beta= 0.30
     Davidson diagonalization with overlap
     ethr =  1.00E-06,  avg # of iterations =  6.0

     total cpu time spent up to now is     1615.6 secs

     total energy              =    -745.57442971 Ry
     estimated scf accuracy    <       0.00033057 Ry

     iteration #  2     ecut=    60.00 Ry     beta= 0.30
     Davidson diagonalization with overlap
     ethr =  8.26E-07,  avg # of iterations =  2.0

     total cpu time spent up to now is     1628.0 secs

     total energy              =    -745.57433479 Ry
     estimated scf accuracy    <       0.00007156 Ry

     iteration #  3     ecut=    60.00 Ry     beta= 0.30
     Davidson diagonalization with overlap
     ethr =  1.79E-07,  avg # of iterations =  5.1

     total cpu time spent up to now is     1643.6 secs

     total energy              =    -745.57437548 Ry
     estimated scf accuracy    <       0.00001108 Ry

     iteration #  4     ecut=    60.00 Ry     beta= 0.30
     Davidson diagonalization with overlap
     ethr =  2.77E-08,  avg # of iterations =  5.7

     total cpu time spent up to now is     1661.2 secs

     total energy              =    -745.57438057 Ry
     estimated scf accuracy    <       0.00000941 Ry

     iteration #  5     ecut=    60.00 Ry     beta= 0.30
     Davidson diagonalization with overlap
     ethr =  2.35E-08,  avg # of iterations =  1.8

     total cpu time spent up to now is     1673.3 secs

     total energy              =    -745.57438650 Ry
     estimated scf accuracy    <       0.00000974 Ry

     iteration #  6     ecut=    60.00 Ry     beta= 0.30
     Davidson diagonalization with overlap
     ethr =  2.35E-08,  avg # of iterations =  5.0

     total cpu time spent up to now is     1689.2 secs

     total energy              =    -745.57439685 Ry
     estimated scf accuracy    <       0.00000382 Ry

     iteration #  7     ecut=    60.00 Ry     beta= 0.30
     Davidson diagonalization with overlap
     ethr =  9.55E-09,  avg # of iterations =  7.1

     total cpu time spent up to now is     1707.2 secs

     total energy              =    -745.57439133 Ry
     estimated scf accuracy    <       0.00000603 Ry

     iteration #  8     ecut=    60.00 Ry     beta= 0.30
     Davidson diagonalization with overlap
     ethr =  9.55E-09,  avg # of iterations = 11.0

     total cpu time spent up to now is     1736.2 secs

     total energy              =    -745.57440211 Ry
     estimated scf accuracy    <       0.00004167 Ry

     iteration #  9     ecut=    60.00 Ry     beta= 0.30
     Davidson diagonalization with overlap
     ethr =  9.55E-09,  avg # of iterations =  2.0

     total cpu time spent up to now is     1748.7 secs

     total energy              =    -745.57438914 Ry
     estimated scf accuracy    <       0.00003314 Ry

     iteration # 10     ecut=    60.00 Ry     beta= 0.30
     Davidson diagonalization with overlap
     c_bands:  2 eigenvalues not converged
     ethr =  9.55E-09,  avg # of iterations = 13.2

     total cpu time spent up to now is     1784.2 secs

     total energy              =    -745.57441544 Ry
     estimated scf accuracy    <       0.00004467 Ry

     iteration # 11     ecut=    60.00 Ry     beta= 0.30
     Davidson diagonalization with overlap
     ethr =  9.55E-09,  avg # of iterations =  7.3

     total cpu time spent up to now is     1800.1 secs

     total energy              =    -745.57440602 Ry
     estimated scf accuracy    <       0.00004267 Ry

     iteration # 12     ecut=    60.00 Ry     beta= 0.30
     Davidson diagonalization with overlap
     ethr =  9.55E-09,  avg # of iterations =  8.3

     total cpu time spent up to now is     1823.7 secs

     total energy              =    -745.57441070 Ry
     estimated scf accuracy    <       0.00000394 Ry

     iteration # 13     ecut=    60.00 Ry     beta= 0.30
     Davidson diagonalization with overlap
     ethr =  9.55E-09,  avg # of iterations =  1.6

     total cpu time spent up to now is     1835.5 secs

     total energy              =    -745.57441099 Ry
     estimated scf accuracy    <       0.00000333 Ry

     iteration # 14     ecut=    60.00 Ry     beta= 0.30
     Davidson diagonalization with overlap
     ethr =  8.32E-09,  avg # of iterations =  1.1

     total cpu time spent up to now is     1846.6 secs

     total energy              =    -745.57441141 Ry
     estimated scf accuracy    <       0.00000361 Ry

     iteration # 15     ecut=    60.00 Ry     beta= 0.30
     Davidson diagonalization with overlap
     ethr =  8.32E-09,  avg # of iterations =  1.0

     total cpu time spent up to now is     1858.0 secs

     total energy              =    -745.57441056 Ry
     estimated scf accuracy    <       0.00000424 Ry

     iteration # 16     ecut=    60.00 Ry     beta= 0.30
     Davidson diagonalization with overlap
     ethr =  8.32E-09,  avg # of iterations =  1.4

     total cpu time spent up to now is     1869.3 secs

     total energy              =    -745.57441073 Ry
     estimated scf accuracy    <       0.00000260 Ry

     iteration # 17     ecut=    60.00 Ry     beta= 0.30
     Davidson diagonalization with overlap
     ethr =  6.49E-09,  avg # of iterations =  1.1

     total cpu time spent up to now is     1880.5 secs

     total energy              =    -745.57441063 Ry
     estimated scf accuracy    <       0.00000261 Ry

     iteration # 18     ecut=    60.00 Ry     beta= 0.30
     Davidson diagonalization with overlap
     ethr =  6.49E-09,  avg # of iterations =  1.0

     total cpu time spent up to now is     1891.6 secs

     total energy              =    -745.57441052 Ry
     estimated scf accuracy    <       0.00000219 Ry

     iteration # 19     ecut=    60.00 Ry     beta= 0.30
     Davidson diagonalization with overlap
     ethr =  5.48E-09,  avg # of iterations =  1.1

     total cpu time spent up to now is     1902.9 secs

     total energy              =    -745.57441087 Ry
     estimated scf accuracy    <       0.00000181 Ry

     iteration # 20     ecut=    60.00 Ry     beta= 0.30
     Davidson diagonalization with overlap
     ethr =  4.52E-09,  avg # of iterations =  1.1

     total cpu time spent up to now is     1914.0 secs

     total energy              =    -745.57441028 Ry
     estimated scf accuracy    <       0.00000222 Ry

     iteration # 21     ecut=    60.00 Ry     beta= 0.30
     Davidson diagonalization with overlap
     ethr =  4.52E-09,  avg # of iterations =  3.0

     total cpu time spent up to now is     1926.6 secs

     total energy              =    -745.57440994 Ry
     estimated scf accuracy    <       0.00000080 Ry

     iteration # 22     ecut=    60.00 Ry     beta= 0.30
     Davidson diagonalization with overlap
     ethr =  2.00E-09,  avg # of iterations =  9.4

     total cpu time spent up to now is     1949.3 secs

     total energy              =    -745.57441066 Ry
     estimated scf accuracy    <       0.00000338 Ry

     iteration # 23     ecut=    60.00 Ry     beta= 0.30
     Davidson diagonalization with overlap
     ethr =  2.00E-09,  avg # of iterations =  2.7

     total cpu time spent up to now is     1962.1 secs

     total energy              =    -745.57441073 Ry
     estimated scf accuracy    <       0.00000179 Ry

     iteration # 24     ecut=    60.00 Ry     beta= 0.30
     Davidson diagonalization with overlap
     ethr =  2.00E-09,  avg # of iterations =  1.9

     total cpu time spent up to now is     1973.5 secs

     total energy              =    -745.57441050 Ry
     estimated scf accuracy    <       0.00000152 Ry

     iteration # 25     ecut=    60.00 Ry     beta= 0.30
     Davidson diagonalization with overlap
     ethr =  2.00E-09,  avg # of iterations =  4.6

     total cpu time spent up to now is     1987.1 secs

     total energy              =    -745.57441070 Ry
     estimated scf accuracy    <       0.00000044 Ry

     iteration # 26     ecut=    60.00 Ry     beta= 0.30
     Davidson diagonalization with overlap
     ethr =  1.09E-09,  avg # of iterations =  3.1

     total cpu time spent up to now is     1999.4 secs

     total energy              =    -745.57441088 Ry
     estimated scf accuracy    <       0.00000035 Ry

     iteration # 27     ecut=    60.00 Ry     beta= 0.30
     Davidson diagonalization with overlap
     ethr =  8.70E-10,  avg # of iterations =  2.0

     total cpu time spent up to now is     2011.4 secs

     total energy              =    -745.57441054 Ry
     estimated scf accuracy    <       0.00000062 Ry

     iteration # 28     ecut=    60.00 Ry     beta= 0.30
     Davidson diagonalization with overlap
     ethr =  8.70E-10,  avg # of iterations =  8.8

     total cpu time spent up to now is     2033.5 secs

     total energy              =    -745.57441102 Ry
     estimated scf accuracy    <       0.00000034 Ry

     iteration # 29     ecut=    60.00 Ry     beta= 0.30
     Davidson diagonalization with overlap
     ethr =  8.57E-10,  avg # of iterations =  3.2

     total cpu time spent up to now is     2046.4 secs

     total energy              =    -745.57441101 Ry
     estimated scf accuracy    <       0.00000076 Ry

     iteration # 30     ecut=    60.00 Ry     beta= 0.30
     Davidson diagonalization with overlap
     ethr =  8.57E-10,  avg # of iterations =  1.1

     total cpu time spent up to now is     2057.7 secs

     total energy              =    -745.57441101 Ry
     estimated scf accuracy    <       0.00000071 Ry

     iteration # 31     ecut=    60.00 Ry     beta= 0.30
     Davidson diagonalization with overlap
     ethr =  8.57E-10,  avg # of iterations =  1.0

     total cpu time spent up to now is     2069.4 secs

     total energy              =    -745.57441093 Ry
     estimated scf accuracy    <       0.00000076 Ry

     iteration # 32     ecut=    60.00 Ry     beta= 0.30
     Davidson diagonalization with overlap
     ethr =  8.57E-10,  avg # of iterations =  1.0

     total cpu time spent up to now is     2081.2 secs

     total energy              =    -745.57441083 Ry
     estimated scf accuracy    <       0.00000065 Ry

     iteration # 33     ecut=    60.00 Ry     beta= 0.30
     Davidson diagonalization with overlap
     ethr =  8.57E-10,  avg # of iterations =  1.3

     total cpu time spent up to now is     2093.0 secs

     total energy              =    -745.57441094 Ry
     estimated scf accuracy    <       0.00000043 Ry

     iteration # 34     ecut=    60.00 Ry     beta= 0.30
     Davidson diagonalization with overlap
     ethr =  8.57E-10,  avg # of iterations =  1.0

     total cpu time spent up to now is     2104.8 secs

     total energy              =    -745.57441084 Ry
     estimated scf accuracy    <       0.00000061 Ry

     iteration # 35     ecut=    60.00 Ry     beta= 0.30
     Davidson diagonalization with overlap
     ethr =  8.57E-10,  avg # of iterations =  1.0

     total cpu time spent up to now is     2116.5 secs

     total energy              =    -745.57441084 Ry
     estimated scf accuracy    <       0.00000044 Ry

     iteration # 36     ecut=    60.00 Ry     beta= 0.30
     Davidson diagonalization with overlap
     ethr =  8.57E-10,  avg # of iterations =  1.0

     total cpu time spent up to now is     2129.2 secs

     total energy              =    -745.57441063 Ry
     estimated scf accuracy    <       0.00000043 Ry

     iteration # 37     ecut=    60.00 Ry     beta= 0.30
     Davidson diagonalization with overlap
     ethr =  8.57E-10,  avg # of iterations =  6.7

     total cpu time spent up to now is     2147.1 secs

     total energy              =    -745.57441079 Ry
     estimated scf accuracy    <       0.00000018 Ry

     iteration # 38     ecut=    60.00 Ry     beta= 0.30
     Davidson diagonalization with overlap
     ethr =  4.46E-10,  avg # of iterations =  1.6

     total cpu time spent up to now is     2158.8 secs

     total energy              =    -745.57441077 Ry
     estimated scf accuracy    <       0.00000008 Ry

     iteration # 39     ecut=    60.00 Ry     beta= 0.30
     Davidson diagonalization with overlap
     ethr =  1.97E-10,  avg # of iterations =  6.2

     total cpu time spent up to now is     2175.5 secs

     total energy              =    -745.57441086 Ry
     estimated scf accuracy    <       0.00000002 Ry

     iteration # 40     ecut=    60.00 Ry     beta= 0.30
     Davidson diagonalization with overlap
     ethr =  5.75E-11,  avg # of iterations = 10.8

     total cpu time spent up to now is     2201.1 secs

     total energy              =    -745.57441086 Ry
     estimated scf accuracy    <       0.00000048 Ry

     iteration # 41     ecut=    60.00 Ry     beta= 0.30
     Davidson diagonalization with overlap
     ethr =  5.75E-11,  avg # of iterations =  1.1

     total cpu time spent up to now is     2212.6 secs

     total energy              =    -745.57441089 Ry
     estimated scf accuracy    <       0.00000040 Ry

     iteration # 42     ecut=    60.00 Ry     beta= 0.30
     Davidson diagonalization with overlap
     ethr =  5.75E-11,  avg # of iterations =  1.1

     total cpu time spent up to now is     2224.1 secs

     total energy              =    -745.57441086 Ry
     estimated scf accuracy    <       0.00000045 Ry

     iteration # 43     ecut=    60.00 Ry     beta= 0.30
     Davidson diagonalization with overlap
     ethr =  5.75E-11,  avg # of iterations =  1.1

     total cpu time spent up to now is     2235.3 secs

     total energy              =    -745.57441093 Ry
     estimated scf accuracy    <       0.00000039 Ry

     iteration # 44     ecut=    60.00 Ry     beta= 0.30
     Davidson diagonalization with overlap
     ethr =  5.75E-11,  avg # of iterations =  2.0

     total cpu time spent up to now is     2247.5 secs

     total energy              =    -745.57441084 Ry
     estimated scf accuracy    <       0.00000050 Ry

     iteration # 45     ecut=    60.00 Ry     beta= 0.30
     Davidson diagonalization with overlap
     ethr =  5.75E-11,  avg # of iterations =  5.3

     total cpu time spent up to now is     2262.7 secs

     total energy              =    -745.57441087 Ry
     estimated scf accuracy    <       0.00000029 Ry

     iteration # 46     ecut=    60.00 Ry     beta= 0.30
     Davidson diagonalization with overlap
     ethr =  5.75E-11,  avg # of iterations =  1.2

     total cpu time spent up to now is     2274.6 secs

     total energy              =    -745.57441089 Ry
     estimated scf accuracy    <       0.00000032 Ry

     iteration # 47     ecut=    60.00 Ry     beta= 0.30
     Davidson diagonalization with overlap
     ethr =  5.75E-11,  avg # of iterations =  2.9

     total cpu time spent up to now is     2286.6 secs

     total energy              =    -745.57441078 Ry
     estimated scf accuracy    <       0.00000039 Ry

     iteration # 48     ecut=    60.00 Ry     beta= 0.30
     Davidson diagonalization with overlap
     ethr =  5.75E-11,  avg # of iterations =  8.5

     total cpu time spent up to now is     2309.9 secs

     total energy              =    -745.57441080 Ry
     estimated scf accuracy    <       0.00000004 Ry

     iteration # 49     ecut=    60.00 Ry     beta= 0.30
     Davidson diagonalization with overlap
     ethr =  5.75E-11,  avg # of iterations =  7.9

     total cpu time spent up to now is     2330.2 secs

     total energy              =    -745.57441081 Ry
     estimated scf accuracy    <       0.00000001 Ry

     iteration # 50     ecut=    60.00 Ry     beta= 0.30
     Davidson diagonalization with overlap
     ethr =  3.20E-11,  avg # of iterations =  7.9

     total cpu time spent up to now is     2350.8 secs

     total energy              =    -745.57441082 Ry
     estimated scf accuracy    <       0.00000001 Ry

     iteration # 51     ecut=    60.00 Ry     beta= 0.30
     Davidson diagonalization with overlap
     ethr =  3.20E-11,  avg # of iterations =  1.1

     total cpu time spent up to now is     2362.2 secs

     total energy              =    -745.57441081 Ry
     estimated scf accuracy    <          9.7E-09 Ry

     iteration # 52     ecut=    60.00 Ry     beta= 0.30
     Davidson diagonalization with overlap
     ethr =  2.44E-11,  avg # of iterations =  5.9

     total cpu time spent up to now is     2377.9 secs

     total energy              =    -745.57441082 Ry
     estimated scf accuracy    <          2.7E-10 Ry

     iteration # 53     ecut=    60.00 Ry     beta= 0.30
     Davidson diagonalization with overlap
     ethr =  6.78E-13,  avg # of iterations = 12.7

     total cpu time spent up to now is     2406.0 secs

     total energy              =    -745.57441082 Ry
     estimated scf accuracy    <          5.4E-09 Ry

     iteration # 54     ecut=    60.00 Ry     beta= 0.30
     Davidson diagonalization with overlap
     ethr =  6.78E-13,  avg # of iterations =  9.5

     total cpu time spent up to now is     2431.1 secs

     total energy              =    -745.57441082 Ry
     estimated scf accuracy    <          2.5E-10 Ry

     iteration # 55     ecut=    60.00 Ry     beta= 0.30
     Davidson diagonalization with overlap
     ethr =  6.36E-13,  avg # of iterations =  9.0

     total cpu time spent up to now is     2454.1 secs

     total energy              =    -745.57441082 Ry
     estimated scf accuracy    <          3.9E-09 Ry

     iteration # 56     ecut=    60.00 Ry     beta= 0.30
     Davidson diagonalization with overlap
     ethr =  6.36E-13,  avg # of iterations =  6.3

     total cpu time spent up to now is     2470.3 secs

     total energy              =    -745.57441082 Ry
     estimated scf accuracy    <          1.8E-09 Ry

     iteration # 57     ecut=    60.00 Ry     beta= 0.30
     Davidson diagonalization with overlap
     ethr =  6.36E-13,  avg # of iterations =  8.2

     total cpu time spent up to now is     2490.5 secs

     End of self-consistent calculation

          k = 0.0000 0.0000 0.0000 (  3407 PWs)   bands (ev):

   -46.4839 -22.6995 -22.6995 -22.6995 -14.6345  -6.6753  -5.9997  -5.9997
     0.1959   0.1959   0.1959   7.8854   7.8854   7.8854   9.0896   9.0896
     9.0896  10.0238  10.0238  10.0238

          k = 0.0000 0.0000 0.1245 (  3395 PWs)   bands (ev):

   -46.4838 -22.7066 -22.6993 -22.6993 -14.6187  -6.6805  -5.9949  -5.9892
     0.2184   0.2184   0.2537   7.6339   7.8458   7.8458   8.9161   8.9161
     8.9566   9.6339   9.9118   9.9118

          k = 0.0000 0.0000 0.2490 (  3431 PWs)   bands (ev):

   -46.4835 -22.7239 -22.6986 -22.6986 -14.5800  -6.7368  -5.9834  -5.9116
     0.2741   0.2741   0.3915   7.0353   7.7159   7.7159   8.6070   8.6070
     8.6667   8.9458   9.7053   9.7053

          k = 0.0000 0.0000 0.3734 (  3414 PWs)   bands (ev):

   -46.4832 -22.7409 -22.6979 -22.6979 -14.5406  -6.8328  -5.9718  -5.7813
     0.3317   0.3317   0.5272   6.4547   7.5363   7.5363   8.4107   8.4144
     8.4144   8.4353   9.5373   9.5373

          k = 0.0000 0.0000-0.4979 (  3394 PWs)   bands (ev):

   -46.4830 -22.7479 -22.6976 -22.6976 -14.5241  -6.8789  -5.9670  -5.7172
     0.3562   0.3562   0.5828   6.2202   7.4508   7.4508   8.2526   8.3122
     8.3585   8.3585   9.4744   9.4744

          k = 0.0000 0.1245 0.1245 (  3403 PWs)   bands (ev):

   -46.4837 -22.7065 -22.7062 -22.6990 -14.6037  -6.6726  -5.9921  -5.9832
     0.1918   0.2416   0.3357   7.4778   7.7186   7.8168   8.5537   8.7562
     9.1026   9.3808   9.7807   9.7814

          k = 0.0000 0.1245 0.2490 (  3416 PWs)   bands (ev):

   -46.4833 -22.7235 -22.7056 -22.6983 -14.5669  -6.6976  -5.9768  -5.9255
     0.2194   0.2988   0.4389   6.9635   7.5417   7.7113   8.1040   8.4607
     8.8397   9.0897   9.5417   9.6043

          k = 0.0000 0.1245 0.3734 (  3404 PWs)   bands (ev):

   -46.4830 -22.7405 -22.7049 -22.6977 -14.5295  -6.7698  -5.9610  -5.8095
     0.2841   0.3582   0.5007   6.4194   7.4084   7.5449   7.6978   8.2806
     8.5469   9.0435   9.3500   9.3812

          k = 0.0000 0.1245-0.4979 (  3404 PWs)   bands (ev):

   -46.4829 -22.7475 -22.7046 -22.6974 -14.5138  -6.8080  -5.9545  -5.7495
     0.3210   0.3835   0.5150   6.1934   7.3889   7.4608   7.5089   8.2320
     8.4498   9.0883   9.2316   9.2784

          k = 0.0000 0.2490 0.2490 (  3393 PWs)   bands (ev):

   -46.4830 -22.7229 -22.7222 -22.6977 -14.5348  -6.6311  -5.9724  -5.9138
     0.1790   0.3602   0.4589   6.7291   7.1821   7.5280   7.6781   8.1606
     8.7000   9.1721   9.2376   9.6838

          k = 0.0000 0.2490 0.3734 (  3404 PWs)   bands (ev):

   -46.4827 -22.7395 -22.7217 -22.6970 -14.5023  -6.6166  -5.9470  -5.8623
     0.2029   0.4116   0.4240   6.3331   6.9455   7.0955   7.5669   7.9749
     8.7234   8.9925   9.1434   9.6967

          k = 0.0000 0.2490-0.4979 (  3398 PWs)   bands (ev):

   -46.4826 -22.7464 -22.7214 -22.6968 -14.4886  -6.6258  -5.9312  -5.8281
     0.2451   0.3589   0.4512   6.1321   6.8230   7.0035   7.4893   7.9387
     8.8109   8.9001   9.0694   9.6755

          k = 0.0000 0.3734 0.3734 (  3411 PWs)   bands (ev):

   -46.4824 -22.7386 -22.7383 -22.6964 -14.4747  -6.4698  -5.9506  -5.8845
     0.1638   0.2926   0.4925   6.1642   6.5490   6.6036   7.5754   7.7088
     8.7010   8.9506   9.2546   9.9347

          k = 0.0000 0.3734-0.4979 (  3412 PWs)   bands (ev):

   -46.4823 -22.7454 -22.7380 -22.6962 -14.4631  -6.4171  -5.9278  -5.9077
     0.1808   0.2140   0.5218   6.0217   6.3632   6.5165   7.5266   7.6590
     8.5898   9.1583   9.2065   9.9976

          k = 0.0000-0.4979-0.4979 (  3388 PWs)   bands (ev):

   -46.4821 -22.7449 -22.7449 -22.6959 -14.4525  -6.3142  -5.9409  -5.9409
     0.1573   0.1573   0.5519   5.9134   6.2016   6.3697   7.5465   7.5465
     8.4712   9.2984   9.2984  10.0911

          k = 0.1245 0.1245 0.1245 (  3419 PWs)   bands (ev):

   -46.4835 -22.7064 -22.7059 -22.7059 -14.5893  -6.6548  -5.9847  -5.9847
     0.1961   0.1961   0.4292   7.3199   7.6943   7.6943   8.4677   8.4677
     9.0901   9.2331   9.6919   9.6919

          k = 0.1245 0.1245 0.2490 (  3400 PWs)   bands (ev):

   -46.4832 -22.7231 -22.7055 -22.7052 -14.5543  -6.6545  -5.9665  -5.9386
     0.2060   0.2117   0.5256   6.8800   7.4496   7.6127   8.1190   8.1318
     8.7313   9.2135   9.4892   9.5279

          k = 0.1245 0.1245 0.3734 (  3401 PWs)   bands (ev):

   -46.4829 -22.7401 -22.7047 -22.7046 -14.5186  -6.7057  -5.9482  -5.8309
     0.2150   0.3111   0.5315   6.3871   7.2747   7.5034   7.6481   7.9515
     8.7566   9.0876   9.2888   9.3009

          k = 0.1245 0.1245-0.4979 (  3414 PWs)   bands (ev):

   -46.4828 -22.7471 -22.7044 -22.7043 -14.5036  -6.7369  -5.9406  -5.7730
     0.2186   0.4417   0.4426   6.1714   7.3177   7.3629   7.4563   7.8959
     8.8835   9.0266   9.0990   9.2258

          k = 0.1245 0.2490 0.2490 (  3408 PWs)   bands (ev):

   -46.4829 -22.7226 -22.7219 -22.7047 -14.5234  -6.5765  -5.9585  -5.9225
     0.1399   0.1886   0.5752   6.6511   7.1744   7.4024   7.7566   8.0286
     8.3761   9.2806   9.3432   9.6224

          k = 0.1245 0.2490 0.3734 (  3411 PWs)   bands (ev):

   -46.4826 -22.7391 -22.7214 -22.7040 -14.4921  -6.5496  -5.9293  -5.8682
     0.1198   0.2151   0.5219   6.3130   6.9162   7.1312   7.5548   7.8628
     8.4155   9.1141   9.2767   9.6632

          k = 0.1245 0.2490-0.4979 (  3410 PWs)   bands (ev):

   -46.4824 -22.7460 -22.7211 -22.7037 -14.4790  -6.5540  -5.9132  -5.8315
     0.1091   0.2756   0.4505   6.1222   6.8636   7.0194   7.4662   7.8207
     8.4808   9.1193   9.1498   9.6548

          k = 0.1245 0.3734 0.3734 (  3411 PWs)   bands (ev):

   -46.4823 -22.7383 -22.7380 -22.7033 -14.4652  -6.3989  -5.9302  -5.8744
     0.0823   0.1285   0.4527   6.1671   6.6032   6.6841   7.5725   7.7210
     8.2635   9.1276   9.3645   9.9258

          k = 0.1245 0.3734-0.4979 (  3400 PWs)   bands (ev):

   -46.4821 -22.7450 -22.7377 -22.7031 -14.4539  -6.3444  -5.9056  -5.8921
     0.0618   0.1198   0.4043   6.0231   6.5203   6.5586   7.5464   7.6867
     8.1936   9.2887   9.2928   9.9986

          k = 0.1245-0.4979-0.4979 (  3396 PWs)   bands (ev):

   -46.4820 -22.7446 -22.7446 -22.7028 -14.4435  -6.2399  -5.9179  -5.9179
     0.0585   0.0585   0.3705   5.9158   6.3721   6.4616   7.6086   7.6086
     8.0525   9.3847   9.3847  10.1017

          k = 0.2490 0.2490 0.2490 (  3389 PWs)   bands (ev):

   -46.4826 -22.7220 -22.7212 -22.7212 -14.4955  -6.4601  -5.9242  -5.9242
     0.0450   0.0450   0.5783   6.5034   7.1553   7.1553   7.6693   7.8522
     7.8522   9.4604   9.4604   9.5975

          k = 0.2490 0.2490 0.3734 (  3395 PWs)   bands (ev):

   -46.4822 -22.7382 -22.7209 -22.7205 -14.4672  -6.3852  -5.8891  -5.8788
    -0.0508   0.0313   0.4441   6.2803   6.8609   7.1381   7.2777   7.7666
     7.9462   9.3352   9.5621   9.6799

          k = 0.2490 0.2490-0.4979 (  3400 PWs)   bands (ev):

   -46.4821 -22.7451 -22.7205 -22.7202 -14.4554  -6.3705  -5.8743  -5.8416
    -0.0907   0.0827   0.3304   6.0975   6.9331   7.0221   7.1326   7.7464
     8.0238   9.2838   9.5725   9.6862

          k = 0.2490 0.3734 0.3734 (  3387 PWs)   bands (ev):

   -46.4819 -22.7374 -22.7372 -22.7199 -14.4421  -6.2226  -5.8796  -5.8507
    -0.1365  -0.1099   0.2506   6.1700   6.6039   6.9660   7.2291   7.7412
     7.8154   9.4667   9.6168   9.9242

          k = 0.2490 0.3734-0.4979 (  3396 PWs)   bands (ev):

   -46.4818 -22.7442 -22.7369 -22.7196 -14.4316  -6.1614  -5.8544  -5.8520
    -0.1870  -0.0996   0.1205   6.0151   6.5288   7.0013   7.1620   7.7297
     7.8093   9.5260   9.6288  10.0093

          k = 0.2490-0.4979-0.4979 (  3412 PWs)   bands (ev):

   -46.4817 -22.7438 -22.7438 -22.7194 -14.4216  -6.0543  -5.8604  -5.8604
    -0.1720  -0.1720  -0.0173   5.9062   6.3778   7.0397   7.2114   7.7124
     7.7124   9.6517   9.6517  10.1275

          k = 0.3734 0.3734 0.3734 (  3389 PWs)   bands (ev):

   -46.4816 -22.7367 -22.7364 -22.7364 -14.4187  -6.0386  -5.8269  -5.8269
    -0.2967  -0.2967  -0.0239   6.0758   6.6065   6.6065   7.3376   7.7512
     7.7512   9.8058   9.8058   9.9914

          k = 0.3734 0.3734-0.4979 (  3396 PWs)   bands (ev):

   -46.4815 -22.7433 -22.7362 -22.7361 -14.4090  -5.9610  -5.8162  -5.8045
    -0.3728  -0.3091  -0.1828   5.9337   6.4993   6.6080   7.4103   7.7528
     7.7776   9.8441   9.9408  10.0596

          k = 0.3734-0.4979-0.4979 (  3412 PWs)   bands (ev):

   -46.4814 -22.7430 -22.7430 -22.7359 -14.3996  -5.8588  -5.8003  -5.8003
    -0.3934  -0.3934  -0.3544   5.8260   6.3836   6.5677   7.5668   7.7637
     7.7637   9.9982   9.9982  10.1537

          k =-0.4979-0.4979-0.4979 (  3448 PWs)   bands (ev):

   -46.4813 -22.7427 -22.7427 -22.7427 -14.3904  -5.7745  -5.7745  -5.7745
    -0.4830  -0.4830  -0.4830   5.7312   6.3860   6.3860   7.7736   7.7736
     7.7736  10.1646  10.1646  10.1646

     highest occupied level (ev):    10.1646

!    total energy              =    -745.57441082 Ry
     total all-electron energy =    -18431.131107 Ry
     estimated scf accuracy    <          6.4E-11 Ry

     The total energy is the sum of the following terms:
     one-electron contribution =     -69.19572993 Ry
     hartree contribution      =      60.35426280 Ry
     xc contribution           =     -61.36749816 Ry
     ewald contribution        =    -206.29742263 Ry
     one-center paw contrib.   =    -469.06802290 Ry

     convergence has been achieved in  57 iterations

     Forces acting on atoms (cartesian axes, Ry/au):

     atom    1 type  1   force =     0.00000000    0.00000000    0.00000000
     atom    2 type  2   force =     0.00000000    0.00000000    0.00000000
     atom    3 type  3   force =     0.00000000    0.00000000    0.00000000
     atom    4 type  3   force =     0.00000000    0.00000000    0.00000000
     atom    5 type  3   force =     0.00000000    0.00000000    0.00000000

     Total force =     0.000000     Total SCF correction =     0.000000


     Computing stress (Cartesian axis) and pressure

          total   stress  (Ry/bohr**3)                   (kbar)     P=        3.39
   0.00002305   0.00000000   0.00000000            3.39        0.00        0.00
   0.00000000   0.00002305   0.00000000            0.00        3.39        0.00
   0.00000000   0.00000000   0.00002305            0.00        0.00        3.39

     Energy error            =      5.1E-04 Ry
     Gradient error          =      0.0E+00 Ry/Bohr
     Cell gradient error     =      3.4E+00 kbar

     number of scf cycles    =   2
     number of bfgs steps    =   1

     enthalpy           old  =    -745.5739003150 Ry
     enthalpy           new  =    -745.5744108180 Ry

     CASE: enthalpy          _new < enthalpy          _old

     new trust radius        =       0.0028194950 bohr
     new conv_thr            =            1.0E-12 Ry

     new unit-cell volume =    440.12179 a.u.^3 (    65.21932 Ang^3 )
     density =      5.93724 g/cm^3

CELL_PARAMETERS (alat=  7.57000000)
   1.004835749   0.000000000   0.000000000
   0.000000000   1.004835749   0.000000000
   0.000000000   0.000000000   1.004835749

ATOMIC_POSITIONS (crystal)
Ba               0.0000000000        0.0000000000        0.0000000000
Ti               0.5000000000        0.5000000000        0.5000000000
O                0.5000000000        0.5000000000        0.0000000000
O                0.5000000000        0.0000000000        0.5000000000
O                0.0000000000        0.5000000000        0.5000000000



     Writing config-only to output data dir ./tmp/BaTiO3_pristine.save/ :
     XML data file
     NEW-OLD atomic charge density approx. for the potential
     New effective cutoffs (rho, wfc):  474.88   59.41

     Check: negative core charge=   -0.000002

     total cpu time spent up to now is     2492.6 secs

     Self-consistent Calculation

     iteration #  1     ecut=    60.00 Ry     beta= 0.30
     Davidson diagonalization with overlap
     ethr =  1.00E-06,  avg # of iterations =  2.0

     Threshold (ethr) on eigenvalues was too large:
     Diagonalizing with lowered threshold

     Davidson diagonalization with overlap
     ethr =  2.71E-08,  avg # of iterations =  3.7

     total cpu time spent up to now is     2524.5 secs

     total energy              =    -745.57442171 Ry
     estimated scf accuracy    <       0.00000876 Ry

     iteration #  2     ecut=    60.00 Ry     beta= 0.30
     Davidson diagonalization with overlap
     ethr =  2.19E-08,  avg # of iterations =  2.0

     total cpu time spent up to now is     2537.0 secs

     total energy              =    -745.57441927 Ry
     estimated scf accuracy    <       0.00000187 Ry

     iteration #  3     ecut=    60.00 Ry     beta= 0.30
     Davidson diagonalization with overlap
     ethr =  4.68E-09,  avg # of iterations =  4.6

     total cpu time spent up to now is     2552.0 secs

     total energy              =    -745.57442034 Ry
     estimated scf accuracy    <       0.00000023 Ry

     iteration #  4     ecut=    60.00 Ry     beta= 0.30
     Davidson diagonalization with overlap
     ethr =  5.87E-10,  avg # of iterations =  7.1

     total cpu time spent up to now is     2572.7 secs

     total energy              =    -745.57442054 Ry
     estimated scf accuracy    <       0.00000025 Ry

     iteration #  5     ecut=    60.00 Ry     beta= 0.30
     Davidson diagonalization with overlap
     ethr =  5.87E-10,  avg # of iterations =  1.8

     total cpu time spent up to now is     2584.8 secs

     total energy              =    -745.57442067 Ry
     estimated scf accuracy    <       0.00000029 Ry

     iteration #  6     ecut=    60.00 Ry     beta= 0.30
     Davidson diagonalization with overlap
     ethr =  5.87E-10,  avg # of iterations =  3.2

     total cpu time spent up to now is     2598.8 secs

     total energy              =    -745.57442090 Ry
     estimated scf accuracy    <       0.00000011 Ry

     iteration #  7     ecut=    60.00 Ry     beta= 0.30
     Davidson diagonalization with overlap
     ethr =  2.67E-10,  avg # of iterations =  9.9

     total cpu time spent up to now is     2624.3 secs

     total energy              =    -745.57442110 Ry
     estimated scf accuracy    <       0.00000044 Ry

     iteration #  8     ecut=    60.00 Ry     beta= 0.30
     Davidson diagonalization with overlap
     ethr =  2.67E-10,  avg # of iterations =  1.6

     total cpu time spent up to now is     2636.2 secs

     total energy              =    -745.57442150 Ry
     estimated scf accuracy    <       0.00000050 Ry

     iteration #  9     ecut=    60.00 Ry     beta= 0.30
     Davidson diagonalization with overlap
     ethr =  2.67E-10,  avg # of iterations = 10.3

     total cpu time spent up to now is     2663.6 secs

     total energy              =    -745.57442157 Ry
     estimated scf accuracy    <       0.00000260 Ry

     iteration # 10     ecut=    60.00 Ry     beta= 0.30
     Davidson diagonalization with overlap
     ethr =  2.67E-10,  avg # of iterations =  5.2

     total cpu time spent up to now is     2677.6 secs

     total energy              =    -745.57442026 Ry
     estimated scf accuracy    <       0.00000221 Ry

     iteration # 11     ecut=    60.00 Ry     beta= 0.30
     Davidson diagonalization with overlap
     c_bands:  1 eigenvalues not converged
     c_bands:  1 eigenvalues not converged
     c_bands:  2 eigenvalues not converged
     ethr =  2.67E-10,  avg # of iterations = 15.9

     total cpu time spent up to now is     2718.5 secs

     total energy              =    -745.57442209 Ry
     estimated scf accuracy    <       0.00000265 Ry

     iteration # 12     ecut=    60.00 Ry     beta= 0.30
     Davidson diagonalization with overlap
     ethr =  2.67E-10,  avg # of iterations =  7.6

     total cpu time spent up to now is     2737.7 secs

     total energy              =    -745.57442120 Ry
     estimated scf accuracy    <       0.00000516 Ry

     iteration # 13     ecut=    60.00 Ry     beta= 0.30
     Davidson diagonalization with overlap
     ethr =  2.67E-10,  avg # of iterations =  9.5

     total cpu time spent up to now is     2762.8 secs

     total energy              =    -745.57442123 Ry
     estimated scf accuracy    <       0.00000116 Ry

     iteration # 14     ecut=    60.00 Ry     beta= 0.30
     Davidson diagonalization with overlap
     ethr =  2.67E-10,  avg # of iterations =  7.1

     total cpu time spent up to now is     2779.9 secs

     total energy              =    -745.57442145 Ry
     estimated scf accuracy    <       0.00000033 Ry

     iteration # 15     ecut=    60.00 Ry     beta= 0.30
     Davidson diagonalization with overlap
     ethr =  2.67E-10,  avg # of iterations =  4.3

     total cpu time spent up to now is     2792.7 secs

     total energy              =    -745.57442149 Ry
     estimated scf accuracy    <       0.00000069 Ry

     iteration # 16     ecut=    60.00 Ry     beta= 0.30
     Davidson diagonalization with overlap
     ethr =  2.67E-10,  avg # of iterations =  2.6

     total cpu time spent up to now is     2804.5 secs

     total energy              =    -745.57442110 Ry
     estimated scf accuracy    <       0.00000083 Ry

     iteration # 17     ecut=    60.00 Ry     beta= 0.30
     Davidson diagonalization with overlap
     ethr =  2.67E-10,  avg # of iterations = 10.4

     total cpu time spent up to now is     2829.5 secs

     total energy              =    -745.57442133 Ry
     estimated scf accuracy    <       0.00000006 Ry

     iteration # 18     ecut=    60.00 Ry     beta= 0.30
     Davidson diagonalization with overlap
     ethr =  1.54E-10,  avg # of iterations =  5.2

     total cpu time spent up to now is     2845.6 secs

     total energy              =    -745.57442134 Ry
     estimated scf accuracy    <       0.00000020 Ry

     iteration # 19     ecut=    60.00 Ry     beta= 0.30
     Davidson diagonalization with overlap
     ethr =  1.54E-10,  avg # of iterations =  1.3

     total cpu time spent up to now is     2857.3 secs

     total energy              =    -745.57442133 Ry
     estimated scf accuracy    <       0.00000019 Ry

     iteration # 20     ecut=    60.00 Ry     beta= 0.30
     Davidson diagonalization with overlap
     ethr =  1.54E-10,  avg # of iterations =  1.1

     total cpu time spent up to now is     2868.7 secs

     total energy              =    -745.57442134 Ry
     estimated scf accuracy    <       0.00000017 Ry

     iteration # 21     ecut=    60.00 Ry     beta= 0.30
     Davidson diagonalization with overlap
     ethr =  1.54E-10,  avg # of iterations =  1.0

     total cpu time spent up to now is     2880.0 secs

     total energy              =    -745.57442134 Ry
     estimated scf accuracy    <       0.00000018 Ry

     iteration # 22     ecut=    60.00 Ry     beta= 0.30
     Davidson diagonalization with overlap
     ethr =  1.54E-10,  avg # of iterations =  1.0

     total cpu time spent up to now is     2890.9 secs

     total energy              =    -745.57442133 Ry
     estimated scf accuracy    <       0.00000020 Ry

     iteration # 23     ecut=    60.00 Ry     beta= 0.30
     Davidson diagonalization with overlap
     ethr =  1.54E-10,  avg # of iterations =  2.0

     total cpu time spent up to now is     2903.3 secs

     total energy              =    -745.57442131 Ry
     estimated scf accuracy    <       0.00000018 Ry

     iteration # 24     ecut=    60.00 Ry     beta= 0.30
     Davidson diagonalization with overlap
     ethr =  1.54E-10,  avg # of iterations =  2.0

     total cpu time spent up to now is     2915.6 secs

     total energy              =    -745.57442130 Ry
     estimated scf accuracy    <       0.00000019 Ry

     iteration # 25     ecut=    60.00 Ry     beta= 0.30
     Davidson diagonalization with overlap
     ethr =  1.54E-10,  avg # of iterations =  1.2

     total cpu time spent up to now is     2927.1 secs

     total energy              =    -745.57442130 Ry
     estimated scf accuracy    <       0.00000015 Ry

     iteration # 26     ecut=    60.00 Ry     beta= 0.30
     Davidson diagonalization with overlap
     ethr =  1.54E-10,  avg # of iterations =  1.1

     total cpu time spent up to now is     2938.3 secs

     total energy              =    -745.57442124 Ry
     estimated scf accuracy    <       0.00000012 Ry

     iteration # 27     ecut=    60.00 Ry     beta= 0.30
     Davidson diagonalization with overlap
     ethr =  1.54E-10,  avg # of iterations =  6.9

     total cpu time spent up to now is     2956.5 secs

     total energy              =    -745.57442130 Ry
     estimated scf accuracy    <       0.00000005 Ry

     iteration # 28     ecut=    60.00 Ry     beta= 0.30
     Davidson diagonalization with overlap
     ethr =  1.13E-10,  avg # of iterations =  2.2

     total cpu time spent up to now is     2969.1 secs

     total energy              =    -745.57442130 Ry
     estimated scf accuracy    <       0.00000002 Ry

     iteration # 29     ecut=    60.00 Ry     beta= 0.30
     Davidson diagonalization with overlap
     ethr =  5.99E-11,  avg # of iterations =  2.9

     total cpu time spent up to now is     2982.1 secs

     total energy              =    -745.57442129 Ry
     estimated scf accuracy    <       0.00000005 Ry

     iteration # 30     ecut=    60.00 Ry     beta= 0.30
     Davidson diagonalization with overlap
     ethr =  5.99E-11,  avg # of iterations =  7.9

     total cpu time spent up to now is     3002.4 secs

     total energy              =    -745.57442128 Ry
     estimated scf accuracy    <       0.00000003 Ry

     iteration # 31     ecut=    60.00 Ry     beta= 0.30
     Davidson diagonalization with overlap
     ethr =  5.99E-11,  avg # of iterations =  6.7

     total cpu time spent up to now is     3020.4 secs

     total energy              =    -745.57442129 Ry
     estimated scf accuracy    <          6.5E-09 Ry

     iteration # 32     ecut=    60.00 Ry     beta= 0.30
     Davidson diagonalization with overlap
     ethr =  1.63E-11,  avg # of iterations =  6.2

     total cpu time spent up to now is     3037.2 secs

     total energy              =    -745.57442129 Ry
     estimated scf accuracy    <       0.00000001 Ry

     iteration # 33     ecut=    60.00 Ry     beta= 0.30
     Davidson diagonalization with overlap
     ethr =  1.63E-11,  avg # of iterations = 10.1

     total cpu time spent up to now is     3064.0 secs

     total energy              =    -745.57442131 Ry
     estimated scf accuracy    <       0.00000003 Ry

     iteration # 34     ecut=    60.00 Ry     beta= 0.30
     Davidson diagonalization with overlap
     ethr =  1.63E-11,  avg # of iterations =  4.9

     total cpu time spent up to now is     3078.4 secs

     total energy              =    -745.57442133 Ry
     estimated scf accuracy    <       0.00000006 Ry

     iteration # 35     ecut=    60.00 Ry     beta= 0.30
     Davidson diagonalization with overlap
     ethr =  1.63E-11,  avg # of iterations =  8.1

     total cpu time spent up to now is     3099.1 secs

     total energy              =    -745.57442135 Ry
     estimated scf accuracy    <       0.00000018 Ry

     iteration # 36     ecut=    60.00 Ry     beta= 0.30
     Davidson diagonalization with overlap
     ethr =  1.63E-11,  avg # of iterations =  3.9

     total cpu time spent up to now is     3113.4 secs

     total energy              =    -745.57442132 Ry
     estimated scf accuracy    <       0.00000022 Ry

     iteration # 37     ecut=    60.00 Ry     beta= 0.30
     Davidson diagonalization with overlap
     ethr =  1.63E-11,  avg # of iterations =  5.1

     total cpu time spent up to now is     3129.2 secs

     total energy              =    -745.57442122 Ry
     estimated scf accuracy    <       0.00000015 Ry

     iteration # 38     ecut=    60.00 Ry     beta= 0.30
     Davidson diagonalization with overlap
     c_bands:  3 eigenvalues not converged
     c_bands:  5 eigenvalues not converged
     c_bands:  4 eigenvalues not converged
     c_bands:  1 eigenvalues not converged
     c_bands:  1 eigenvalues not converged
     c_bands:  2 eigenvalues not converged
     c_bands:  1 eigenvalues not converged
     ethr =  1.63E-11,  avg # of iterations = 17.5

     total cpu time spent up to now is     3176.9 secs

     total energy              =    -745.57442121 Ry
     estimated scf accuracy    <       0.00000056 Ry

     iteration # 39     ecut=    60.00 Ry     beta= 0.30
     Davidson diagonalization with overlap
     c_bands:  4 eigenvalues not converged
     c_bands:  4 eigenvalues not converged
     c_bands:  2 eigenvalues not converged
     ethr =  1.63E-11,  avg # of iterations = 15.6

     total cpu time spent up to now is     3217.9 secs

     total energy              =    -745.57442131 Ry
     estimated scf accuracy    <          6.7E-09 Ry

     iteration # 40     ecut=    60.00 Ry     beta= 0.30
     Davidson diagonalization with overlap
     ethr =  1.63E-11,  avg # of iterations =  1.4

     total cpu time spent up to now is     3229.6 secs

     total energy              =    -745.57442131 Ry
     estimated scf accuracy    <          6.0E-09 Ry

     iteration # 41     ecut=    60.00 Ry     beta= 0.30
     Davidson diagonalization with overlap
     ethr =  1.50E-11,  avg # of iterations =  1.0

     total cpu time spent up to now is     3241.3 secs

     total energy              =    -745.57442130 Ry
     estimated scf accuracy    <          5.1E-09 Ry

     iteration # 42     ecut=    60.00 Ry     beta= 0.30
     Davidson diagonalization with overlap
     ethr =  1.27E-11,  avg # of iterations =  1.0

     total cpu time spent up to now is     3252.9 secs

     total energy              =    -745.57442130 Ry
     estimated scf accuracy    <          3.4E-09 Ry

     iteration # 43     ecut=    60.00 Ry     beta= 0.30
     Davidson diagonalization with overlap
     ethr =  8.43E-12,  avg # of iterations =  6.7

     total cpu time spent up to now is     3270.8 secs

     total energy              =    -745.57442130 Ry
     estimated scf accuracy    <          1.4E-09 Ry

     iteration # 44     ecut=    60.00 Ry     beta= 0.30
     Davidson diagonalization with overlap
     ethr =  3.38E-12,  avg # of iterations =  1.7

     total cpu time spent up to now is     3282.6 secs

     total energy              =    -745.57442131 Ry
     estimated scf accuracy    <          8.5E-10 Ry

     iteration # 45     ecut=    60.00 Ry     beta= 0.30
     Davidson diagonalization with overlap
     ethr =  2.13E-12,  avg # of iterations =  1.7

     total cpu time spent up to now is     3294.0 secs

     total energy              =    -745.57442130 Ry
     estimated scf accuracy    <          1.0E-09 Ry

     iteration # 46     ecut=    60.00 Ry     beta= 0.30
     Davidson diagonalization with overlap
     ethr =  2.13E-12,  avg # of iterations =  1.3

     total cpu time spent up to now is     3305.7 secs

     total energy              =    -745.57442130 Ry
     estimated scf accuracy    <          6.6E-10 Ry

     iteration # 47     ecut=    60.00 Ry     beta= 0.30
     Davidson diagonalization with overlap
     ethr =  1.65E-12,  avg # of iterations =  3.2

     total cpu time spent up to now is     3319.1 secs

     total energy              =    -745.57442130 Ry
     estimated scf accuracy    <          2.6E-10 Ry

     iteration # 48     ecut=    60.00 Ry     beta= 0.30
     Davidson diagonalization with overlap
     ethr =  6.50E-13,  avg # of iterations =  6.5

     total cpu time spent up to now is     3335.1 secs

     total energy              =    -745.57442130 Ry
     estimated scf accuracy    <          6.6E-12 Ry

     iteration # 49     ecut=    60.00 Ry     beta= 0.30
     Davidson diagonalization with overlap
     ethr =  1.00E-13,  avg # of iterations =  6.9

     total cpu time spent up to now is     3351.7 secs

     total energy              =    -745.57442130 Ry
     estimated scf accuracy    <          5.4E-12 Ry

     iteration # 50     ecut=    60.00 Ry     beta= 0.30
     Davidson diagonalization with overlap
     ethr =  1.00E-13,  avg # of iterations =  1.1

     total cpu time spent up to now is     3362.5 secs

     total energy              =    -745.57442130 Ry
     estimated scf accuracy    <          2.1E-12 Ry

     iteration # 51     ecut=    60.00 Ry     beta= 0.30
     Davidson diagonalization with overlap
     ethr =  1.00E-13,  avg # of iterations =  1.1

     total cpu time spent up to now is     3373.3 secs

     End of self-consistent calculation

          k = 0.0000 0.0000 0.0000 (  3407 PWs)   bands (ev):

   -46.5209 -22.7354 -22.7354 -22.7354 -14.6680  -6.6991  -6.0231  -6.0231
     0.1630   0.1630   0.1630   7.8562   7.8562   7.8562   9.0644   9.0644
     9.0644   9.9936   9.9936   9.9936

          k = 0.0000 0.0000 0.1244 (  3395 PWs)   bands (ev):

   -46.5208 -22.7424 -22.7351 -22.7351 -14.6524  -6.7040  -6.0184  -6.0128
     0.1853   0.1853   0.2203   7.6057   7.8170   7.8170   8.8914   8.8914
     8.9320   9.6045   9.8819   9.8819

          k = 0.0000 0.0000 0.2488 (  3431 PWs)   bands (ev):

   -46.5205 -22.7594 -22.7344 -22.7344 -14.6142  -6.7590  -6.0070  -5.9363
     0.2406   0.2406   0.3568   7.0093   7.6887   7.6887   8.5823   8.5823
     8.6431   8.9179   9.6762   9.6762

          k = 0.0000 0.0000 0.3732 (  3414 PWs)   bands (ev):

   -46.5202 -22.7763 -22.7338 -22.7338 -14.5752  -6.8537  -5.9954  -5.8075
     0.2978   0.2978   0.4912   6.4310   7.5111   7.5111   8.3879   8.3890
     8.3890   8.4087   9.5087   9.5087

          k = 0.0000 0.0000-0.4976 (  3394 PWs)   bands (ev):

   -46.5200 -22.7832 -22.7335 -22.7335 -14.5588  -6.8992  -5.9906  -5.7440
     0.3221   0.3221   0.5462   6.1974   7.4264   7.4264   8.2265   8.2897
     8.3327   8.3327   9.4460   9.4460

          k = 0.0000 0.1244 0.1244 (  3403 PWs)   bands (ev):

   -46.5206 -22.7423 -22.7419 -22.7348 -14.6375  -6.6959  -6.0158  -6.0069
     0.1588   0.2083   0.3017   7.4504   7.6904   7.7883   8.5297   8.7319
     9.0774   9.3522   9.7511   9.7517

          k = 0.0000 0.1244 0.2488 (  3416 PWs)   bands (ev):

   -46.5203 -22.7590 -22.7414 -22.7342 -14.6011  -6.7200  -6.0005  -5.9500
     0.1862   0.2652   0.4039   6.9379   7.5149   7.6842   8.0800   8.4367
     8.8134   9.0639   9.5127   9.5751

          k = 0.0000 0.1244 0.3732 (  3404 PWs)   bands (ev):

   -46.5200 -22.7759 -22.7407 -22.7335 -14.5641  -6.7909  -5.9847  -5.8355
     0.2504   0.3241   0.4650   6.3958   7.3829   7.5199   7.6739   8.2558
     8.5219   9.0173   9.3216   9.3529

          k = 0.0000 0.1244-0.4976 (  3404 PWs)   bands (ev):

   -46.5199 -22.7828 -22.7404 -22.7332 -14.5486  -6.8287  -5.9783  -5.7760
     0.2871   0.3492   0.4790   6.1706   7.3638   7.4367   7.4853   8.2069
     8.4253   9.0614   9.2042   9.2503

          k = 0.0000 0.2488 0.2488 (  3393 PWs)   bands (ev):

   -46.5200 -22.7585 -22.7578 -22.7335 -14.5694  -6.6534  -5.9966  -5.9383
     0.1459   0.3261   0.4237   6.7044   7.1566   7.5044   7.6516   8.1378
     8.6743   9.1457   9.2091   9.6549

          k = 0.0000 0.2488 0.3732 (  3404 PWs)   bands (ev):

   -46.5197 -22.7749 -22.7573 -22.7329 -14.5372  -6.6384  -5.9712  -5.8875
     0.1694   0.3766   0.3893   6.3097   6.9221   7.0716   7.5425   7.9518
     8.6973   8.9643   9.1163   9.6684

          k = 0.0000 0.2488-0.4976 (  3398 PWs)   bands (ev):

   -46.5196 -22.7818 -22.7570 -22.7326 -14.5237  -6.6472  -5.9554  -5.8539
     0.2115   0.3241   0.4163   6.1094   6.8011   6.9787   7.4660   7.9151
     8.7844   8.8720   9.0421   9.6477

          k = 0.0000 0.3732 0.3732 (  3411 PWs)   bands (ev):

   -46.5194 -22.7740 -22.7737 -22.7323 -14.5099  -6.4920  -5.9753  -5.9095
     0.1304   0.2584   0.4572   6.1408   6.5277   6.5808   7.5519   7.6871
     8.6726   8.9232   9.2260   9.9065

          k = 0.0000 0.3732-0.4976 (  3412 PWs)   bands (ev):

   -46.5193 -22.7807 -22.7735 -22.7320 -14.4984  -6.4394  -5.9525  -5.9329
     0.1473   0.1801   0.4862   5.9986   6.3427   6.4940   7.5045   7.6369
     8.5612   9.1298   9.1779   9.9695

          k = 0.0000-0.4976-0.4976 (  3388 PWs)   bands (ev):

   -46.5191 -22.7802 -22.7802 -22.7317 -14.4879  -6.3367  -5.9658  -5.9658
     0.1239   0.1239   0.5161   5.8903   6.1815   6.3479   7.5250   7.5250
     8.4421   9.2691   9.2691  10.0630

          k = 0.1244 0.1244 0.1244 (  3419 PWs)   bands (ev):

   -46.5205 -22.7422 -22.7417 -22.7417 -14.6233  -6.6780  -6.0084  -6.0084
     0.1631   0.1631   0.3944   7.2933   7.6664   7.6664   8.4439   8.4439
     9.0617   9.2076   9.6627   9.6627

          k = 0.1244 0.1244 0.2488 (  3400 PWs)   bands (ev):

   -46.5202 -22.7587 -22.7412 -22.7410 -14.5886  -6.6770  -5.9903  -5.9630
     0.1730   0.1784   0.4899   6.8550   7.4234   7.5860   8.0947   8.1076
     8.7045   9.1880   9.4609   9.4989

          k = 0.1244 0.1244 0.3732 (  3401 PWs)   bands (ev):

   -46.5199 -22.7755 -22.7405 -22.7403 -14.5534  -6.7272  -5.9721  -5.8566
     0.1820   0.2770   0.4957   6.3637   7.2505   7.4781   7.6238   7.9266
     8.7299   9.0624   9.2605   9.2736

          k = 0.1244 0.1244-0.4976 (  3414 PWs)   bands (ev):

   -46.5198 -22.7824 -22.7402 -22.7401 -14.5386  -6.7579  -5.9645  -5.7994
     0.1856   0.4067   0.4072   6.1488   7.2950   7.3378   7.4314   7.8708
     8.8561   9.0016   9.0714   9.1989

          k = 0.1244 0.2488 0.2488 (  3408 PWs)   bands (ev):

   -46.5199 -22.7582 -22.7575 -22.7404 -14.5581  -6.5991  -5.9827  -5.9468
     0.1071   0.1557   0.5390   6.6271   7.1491   7.3780   7.7304   8.0051
     8.3500   9.2531   9.3166   9.5940

          k = 0.1244 0.2488 0.3732 (  3411 PWs)   bands (ev):

   -46.5196 -22.7745 -22.7570 -22.7398 -14.5271  -6.5717  -5.9537  -5.8935
     0.0873   0.1818   0.4860   6.2897   6.8933   7.1072   7.5293   7.8384
     8.3889   9.0876   9.2497   9.6354

          k = 0.1244 0.2488-0.4976 (  3410 PWs)   bands (ev):

   -46.5194 -22.7814 -22.7567 -22.7395 -14.5141  -6.5758  -5.9376  -5.8573
     0.0768   0.2415   0.4153   6.0994   6.8419   6.9946   7.4416   7.7956
     8.4537   9.0927   9.1232   9.6273

          k = 0.1244 0.3732 0.3732 (  3411 PWs)   bands (ev):

   -46.5193 -22.7737 -22.7734 -22.7391 -14.5005  -6.4216  -5.9550  -5.8995
     0.0496   0.0959   0.4175   6.1434   6.5804   6.6622   7.5473   7.6978
     8.2362   9.1008   9.3363   9.8978

          k = 0.1244 0.3732-0.4976 (  3400 PWs)   bands (ev):

   -46.5191 -22.7803 -22.7731 -22.7388 -14.4893  -6.3671  -5.9304  -5.9174
     0.0294   0.0868   0.3696   5.9999   6.4977   6.5369   7.5226   7.6629
     8.1662   9.2608   9.2648   9.9705

          k = 0.1244-0.4976-0.4976 (  3396 PWs)   bands (ev):

   -46.5190 -22.7799 -22.7799 -22.7386 -14.4790  -6.2629  -5.9429  -5.9429
     0.0259   0.0259   0.3363   5.8926   6.3503   6.4397   7.5855   7.5855
     8.0245   9.3560   9.3560  10.0736

          k = 0.2488 0.2488 0.2488 (  3389 PWs)   bands (ev):

   -46.5196 -22.7576 -22.7568 -22.7568 -14.5305  -6.4832  -5.9486  -5.9486
     0.0130   0.0130   0.5420   6.4800   7.1304   7.1304   7.6437   7.8273
     7.8273   9.4326   9.4326   9.5709

          k = 0.2488 0.2488 0.3732 (  3395 PWs)   bands (ev):

   -46.5192 -22.7736 -22.7565 -22.7561 -14.5025  -6.4081  -5.9138  -5.9040
    -0.0819  -0.0007   0.4089   6.2567   6.8378   7.1136   7.2527   7.7403
     7.9206   9.3086   9.5342   9.6531

          k = 0.2488 0.2488-0.4976 (  3400 PWs)   bands (ev):

   -46.5191 -22.7804 -22.7561 -22.7558 -14.4908  -6.3933  -5.8991  -5.8673
    -0.1215   0.0501   0.2960   6.0745   6.9107   6.9967   7.1081   7.7195
     7.9976   9.2577   9.5447   9.6594

          k = 0.2488 0.3732 0.3732 (  3387 PWs)   bands (ev):

   -46.5189 -22.7729 -22.7726 -22.7555 -14.4776  -6.2462  -5.9047  -5.8759
    -0.1671  -0.1410   0.2169   6.1457   6.5812   6.9425   7.2036   7.7154
     7.7885   9.4400   9.5892   9.8965

          k = 0.2488 0.3732-0.4976 (  3396 PWs)   bands (ev):

   -46.5188 -22.7795 -22.7724 -22.7553 -14.4672  -6.1851  -5.8799  -5.8772
    -0.2173  -0.1308   0.0879   5.9915   6.5062   6.9772   7.1369   7.7030
     7.7830   9.4989   9.6013   9.9814

          k = 0.2488-0.4976-0.4976 (  3412 PWs)   bands (ev):

   -46.5187 -22.7792 -22.7792 -22.7550 -14.4573  -6.0785  -5.8858  -5.8858
    -0.2027  -0.2027  -0.0486   5.8827   6.3560   7.0144   7.1861   7.6862
     7.6862   9.6239   9.6239  10.0993

          k = 0.3732 0.3732 0.3732 (  3389 PWs)   bands (ev):

   -46.5186 -22.7721 -22.7718 -22.7718 -14.4544  -6.0633  -5.8524  -5.8524
    -0.3263  -0.3263  -0.0555   6.0510   6.5838   6.5838   7.3119   7.7235
     7.7235   9.7783   9.7783   9.9636

          k = 0.3732 0.3732-0.4976 (  3396 PWs)   bands (ev):

   -46.5185 -22.7787 -22.7717 -22.7715 -14.4448  -5.9859  -5.8419  -5.8301
    -0.4017  -0.3387  -0.2132   5.9095   6.4768   6.5854   7.3837   7.7245
     7.7497   9.8167   9.9129  10.0316

          k = 0.3732-0.4976-0.4976 (  3412 PWs)   bands (ev):

   -46.5184 -22.7784 -22.7784 -22.7713 -14.4355  -5.8842  -5.8261  -5.8261
    -0.4223  -0.4223  -0.3834   5.8020   6.3618   6.5451   7.5389   7.7354
     7.7354   9.9703   9.9703  10.1254

          k =-0.4976-0.4976-0.4976 (  3448 PWs)   bands (ev):

   -46.5183 -22.7781 -22.7781 -22.7781 -14.4263  -5.8005  -5.8005  -5.8005
    -0.5112  -0.5112  -0.5112   5.7072   6.3641   6.3641   7.7447   7.7447
     7.7447  10.1363  10.1363  10.1363

     highest occupied level (ev):    10.1363

!    total energy              =    -745.57442130 Ry
     total all-electron energy =    -18431.131118 Ry
     estimated scf accuracy    <          1.4E-13 Ry

     The total energy is the sum of the following terms:
     one-electron contribution =     -69.39208617 Ry
     hartree contribution      =      60.40518785 Ry
     xc contribution           =     -61.36096911 Ry
     ewald contribution        =    -206.15874874 Ry
     one-center paw contrib.   =    -469.06780514 Ry

     convergence has been achieved in  51 iterations

     Forces acting on atoms (cartesian axes, Ry/au):

     atom    1 type  1   force =     0.00000000    0.00000000    0.00000000
     atom    2 type  2   force =     0.00000000    0.00000000    0.00000000
     atom    3 type  3   force =     0.00000000    0.00000000    0.00000000
     atom    4 type  3   force =     0.00000000    0.00000000    0.00000000
     atom    5 type  3   force =     0.00000000    0.00000000    0.00000000

     Total force =     0.000000     Total SCF correction =     0.000000


     Computing stress (Cartesian axis) and pressure

          total   stress  (Ry/bohr**3)                   (kbar)     P=        0.09
   0.00000063   0.00000000   0.00000000            0.09        0.00        0.00
   0.00000000   0.00000063   0.00000000            0.00        0.09        0.00
   0.00000000   0.00000000   0.00000063            0.00        0.00        0.09

     Energy error            =      1.0E-05 Ry
     Gradient error          =      0.0E+00 Ry/Bohr
     Cell gradient error     =      9.2E-02 kbar

     number of scf cycles    =   3
     number of bfgs steps    =   2

     enthalpy           old  =    -745.5744108180 Ry
     enthalpy           new  =    -745.5744213050 Ry

     CASE: enthalpy          _new < enthalpy          _old

     small trust_radius: resetting bfgs history

     new trust radius        =       0.0000656077 bohr
     new conv_thr            =            1.0E-12 Ry

     new unit-cell volume =    440.14244 a.u.^3 (    65.22238 Ang^3 )
     density =      5.93696 g/cm^3

CELL_PARAMETERS (alat=  7.57000000)
   1.004851461   0.000000000   0.000000000
   0.000000000   1.004851461   0.000000000
   0.000000000   0.000000000   1.004851461

ATOMIC_POSITIONS (crystal)
Ba               0.0000000000        0.0000000000        0.0000000000
Ti               0.5000000000        0.5000000000        0.5000000000
O                0.5000000000        0.5000000000        0.0000000000
O                0.5000000000        0.0000000000        0.5000000000
O                0.0000000000        0.5000000000        0.5000000000



     Writing config-only to output data dir ./tmp/BaTiO3_pristine.save/ :
     XML data file
     NEW-OLD atomic charge density approx. for the potential
     New effective cutoffs (rho, wfc):  474.87   59.41

     Check: negative core charge=   -0.000002

     total cpu time spent up to now is     3374.5 secs

     Self-consistent Calculation

     iteration #  1     ecut=    60.00 Ry     beta= 0.30
     Davidson diagonalization with overlap
     ethr =  1.00E-06,  avg # of iterations =  2.0

     Threshold (ethr) on eigenvalues was too large:
     Diagonalizing with lowered threshold

     Davidson diagonalization with overlap
     ethr =  1.80E-11,  avg # of iterations =  3.3

     total cpu time spent up to now is     3405.2 secs

     total energy              =    -745.57442131 Ry
     estimated scf accuracy    <          4.6E-09 Ry

     iteration #  2     ecut=    60.00 Ry     beta= 0.30
     Davidson diagonalization with overlap
     ethr =  1.15E-11,  avg # of iterations =  2.0

     total cpu time spent up to now is     3417.6 secs

     total energy              =    -745.57442131 Ry
     estimated scf accuracy    <          9.6E-10 Ry

     iteration #  3     ecut=    60.00 Ry     beta= 0.30
     Davidson diagonalization with overlap
     ethr =  2.39E-12,  avg # of iterations =  4.7

     total cpu time spent up to now is     3433.3 secs

     total energy              =    -745.57442131 Ry
     estimated scf accuracy    <          1.1E-10 Ry

     iteration #  4     ecut=    60.00 Ry     beta= 0.30
     Davidson diagonalization with overlap
     ethr =  2.85E-13,  avg # of iterations =  6.5

     total cpu time spent up to now is     3454.1 secs

     total energy              =    -745.57442131 Ry
     estimated scf accuracy    <          1.1E-10 Ry

     iteration #  5     ecut=    60.00 Ry     beta= 0.30
     Davidson diagonalization with overlap
     ethr =  2.63E-13,  avg # of iterations =  1.8

     total cpu time spent up to now is     3465.9 secs

     total energy              =    -745.57442131 Ry
     estimated scf accuracy    <          1.2E-10 Ry

     iteration #  6     ecut=    60.00 Ry     beta= 0.30
     Davidson diagonalization with overlap
     ethr =  2.63E-13,  avg # of iterations =  5.8

     total cpu time spent up to now is     3480.9 secs

     total energy              =    -745.57442131 Ry
     estimated scf accuracy    <          4.6E-11 Ry

     iteration #  7     ecut=    60.00 Ry     beta= 0.30
     Davidson diagonalization with overlap
     ethr =  1.16E-13,  avg # of iterations =  3.6

     total cpu time spent up to now is     3494.4 secs

     total energy              =    -745.57442131 Ry
     estimated scf accuracy    <          3.2E-11 Ry

     iteration #  8     ecut=    60.00 Ry     beta= 0.30
     Davidson diagonalization with overlap
     ethr =  1.00E-13,  avg # of iterations =  1.8

     total cpu time spent up to now is     3506.2 secs

     total energy              =    -745.57442131 Ry
     estimated scf accuracy    <          2.9E-11 Ry

     iteration #  9     ecut=    60.00 Ry     beta= 0.30
     Davidson diagonalization with overlap
     ethr =  1.00E-13,  avg # of iterations =  6.5

     total cpu time spent up to now is     3527.9 secs

     total energy              =    -745.57442131 Ry
     estimated scf accuracy    <          8.3E-11 Ry

     iteration # 10     ecut=    60.00 Ry     beta= 0.30
     Davidson diagonalization with overlap
     ethr =  1.00E-13,  avg # of iterations =  2.0

     total cpu time spent up to now is     3539.5 secs

     total energy              =    -745.57442131 Ry
     estimated scf accuracy    <          6.9E-11 Ry

     iteration # 11     ecut=    60.00 Ry     beta= 0.30
     Davidson diagonalization with overlap
     ethr =  1.00E-13,  avg # of iterations =  6.4

     total cpu time spent up to now is     3559.8 secs

     total energy              =    -745.57442131 Ry
     estimated scf accuracy    <          5.2E-12 Ry

     iteration # 12     ecut=    60.00 Ry     beta= 0.30
     Davidson diagonalization with overlap
     ethr =  1.00E-13,  avg # of iterations =  2.0

     total cpu time spent up to now is     3573.6 secs

     total energy              =    -745.57442131 Ry
     estimated scf accuracy    <          1.7E-11 Ry

     iteration # 13     ecut=    60.00 Ry     beta= 0.30
     Davidson diagonalization with overlap
     ethr =  1.00E-13,  avg # of iterations =  4.4

     total cpu time spent up to now is     3591.4 secs

     total energy              =    -745.57442131 Ry
     estimated scf accuracy    <          2.1E-11 Ry

     iteration # 14     ecut=    60.00 Ry     beta= 0.30
     Davidson diagonalization with overlap
     ethr =  1.00E-13,  avg # of iterations =  2.0

     total cpu time spent up to now is     3603.9 secs

     total energy              =    -745.57442131 Ry
     estimated scf accuracy    <          3.0E-11 Ry

     iteration # 15     ecut=    60.00 Ry     beta= 0.30
     Davidson diagonalization with overlap
     ethr =  1.00E-13,  avg # of iterations =  1.9

     total cpu time spent up to now is     3615.8 secs

     total energy              =    -745.57442131 Ry
     estimated scf accuracy    <          4.5E-11 Ry

     iteration # 16     ecut=    60.00 Ry     beta= 0.30
     Davidson diagonalization with overlap
     ethr =  1.00E-13,  avg # of iterations =  2.0

     total cpu time spent up to now is     3627.9 secs

     total energy              =    -745.57442131 Ry
     estimated scf accuracy    <          3.9E-11 Ry

     iteration # 17     ecut=    60.00 Ry     beta= 0.30
     Davidson diagonalization with overlap
     ethr =  1.00E-13,  avg # of iterations =  6.0

     total cpu time spent up to now is     3651.2 secs

     total energy              =    -745.57442131 Ry
     estimated scf accuracy    <          2.0E-10 Ry

     iteration # 18     ecut=    60.00 Ry     beta= 0.30
     Davidson diagonalization with overlap
     ethr =  1.00E-13,  avg # of iterations =  5.6

     total cpu time spent up to now is     3671.2 secs

     total energy              =    -745.57442131 Ry
     estimated scf accuracy    <          4.5E-12 Ry

     iteration # 19     ecut=    60.00 Ry     beta= 0.30
     Davidson diagonalization with overlap
     ethr =  1.00E-13,  avg # of iterations =  2.0

     total cpu time spent up to now is     3682.7 secs

     total energy              =    -745.57442131 Ry
     estimated scf accuracy    <          2.5E-12 Ry

     iteration # 20     ecut=    60.00 Ry     beta= 0.30
     Davidson diagonalization with overlap
     ethr =  1.00E-13,  avg # of iterations =  1.0

     total cpu time spent up to now is     3694.2 secs

     total energy              =    -745.57442131 Ry
     estimated scf accuracy    <          1.8E-12 Ry

     iteration # 21     ecut=    60.00 Ry     beta= 0.30
     Davidson diagonalization with overlap
     ethr =  1.00E-13,  avg # of iterations =  1.0

     total cpu time spent up to now is     3705.8 secs

     total energy              =    -745.57442131 Ry
     estimated scf accuracy    <          2.5E-12 Ry

     iteration # 22     ecut=    60.00 Ry     beta= 0.30
     Davidson diagonalization with overlap
     ethr =  1.00E-13,  avg # of iterations =  1.0

     total cpu time spent up to now is     3717.3 secs

     End of self-consistent calculation

          k = 0.0000 0.0000 0.0000 (  3407 PWs)   bands (ev):

   -46.5218 -22.7362 -22.7362 -22.7362 -14.6688  -6.6996  -6.0236  -6.0236
     0.1622   0.1622   0.1622   7.8556   7.8556   7.8556   9.0639   9.0639
     9.0639   9.9929   9.9929   9.9929

          k = 0.0000 0.0000 0.1244 (  3395 PWs)   bands (ev):

   -46.5216 -22.7432 -22.7359 -22.7359 -14.6532  -6.7045  -6.0189  -6.0134
     0.1846   0.1846   0.2195   7.6050   7.8163   7.8163   8.8908   8.8908
     8.9314   9.6038   9.8812   9.8812

          k = 0.0000 0.0000 0.2488 (  3431 PWs)   bands (ev):

   -46.5213 -22.7602 -22.7353 -22.7353 -14.6149  -6.7595  -6.0075  -5.9369
     0.2398   0.2398   0.3560   7.0087   7.6880   7.6880   8.5817   8.5817
     8.6425   8.9172   9.6755   9.6755

          k = 0.0000 0.0000 0.3732 (  3414 PWs)   bands (ev):

   -46.5210 -22.7771 -22.7346 -22.7346 -14.5760  -6.8541  -5.9960  -5.8081
     0.2970   0.2970   0.4903   6.4304   7.5105   7.5105   8.3873   8.3884
     8.3884   8.4080   9.5081   9.5081

          k = 0.0000 0.0000-0.4976 (  3394 PWs)   bands (ev):

   -46.5209 -22.7840 -22.7343 -22.7343 -14.5597  -6.8996  -5.9912  -5.7446
     0.3213   0.3213   0.5454   6.1969   7.4259   7.4259   8.2259   8.2891
     8.3321   8.3321   9.4453   9.4453

          k = 0.0000 0.1244 0.1244 (  3403 PWs)   bands (ev):

   -46.5215 -22.7431 -22.7427 -22.7356 -14.6383  -6.6964  -6.0163  -6.0074
     0.1581   0.2076   0.3009   7.4498   7.6897   7.7877   8.5291   8.7313
     9.0769   9.3515   9.7504   9.7510

          k = 0.0000 0.1244 0.2488 (  3416 PWs)   bands (ev):

   -46.5212 -22.7599 -22.7422 -22.7350 -14.6019  -6.7205  -6.0011  -5.9506
     0.1854   0.2644   0.4031   6.9373   7.5143   7.6836   8.0794   8.4362
     8.8128   9.0633   9.5121   9.5744

          k = 0.0000 0.1244 0.3732 (  3404 PWs)   bands (ev):

   -46.5209 -22.7767 -22.7415 -22.7343 -14.5649  -6.7914  -5.9853  -5.8361
     0.2496   0.3233   0.4642   6.3953   7.3824   7.5193   7.6733   8.2553
     8.5213   9.0167   9.3210   9.3523

          k = 0.0000 0.1244-0.4976 (  3404 PWs)   bands (ev):

   -46.5207 -22.7836 -22.7412 -22.7341 -14.5494  -6.8291  -5.9789  -5.7766
     0.2863   0.3484   0.4781   6.1701   7.3633   7.4361   7.4847   8.2063
     8.4248   9.0608   9.2035   9.2496

          k = 0.0000 0.2488 0.2488 (  3393 PWs)   bands (ev):

   -46.5209 -22.7593 -22.7586 -22.7343 -14.5702  -6.6540  -5.9971  -5.9388
     0.1451   0.3253   0.4229   6.7039   7.1560   7.5038   7.6510   8.1373
     8.6737   9.1451   9.2084   9.6542

          k = 0.0000 0.2488 0.3732 (  3404 PWs)   bands (ev):

   -46.5205 -22.7757 -22.7581 -22.7337 -14.5380  -6.6389  -5.9718  -5.8881
     0.1687   0.3757   0.3885   6.3091   6.9216   7.0711   7.5419   7.9512
     8.6967   8.9637   9.1157   9.6678

          k = 0.0000 0.2488-0.4976 (  3398 PWs)   bands (ev):

   -46.5204 -22.7826 -22.7578 -22.7334 -14.5245  -6.6477  -5.9560  -5.8545
     0.2107   0.3233   0.4155   6.1089   6.8006   6.9782   7.4654   7.9146
     8.7838   8.8713   9.0415   9.6470

          k = 0.0000 0.3732 0.3732 (  3411 PWs)   bands (ev):

   -46.5202 -22.7749 -22.7745 -22.7331 -14.5107  -6.4925  -5.9758  -5.9100
     0.1297   0.2576   0.4564   6.1402   6.5272   6.5803   7.5514   7.6866
     8.6719   8.9226   9.2254   9.9058

          k = 0.0000 0.3732-0.4976 (  3412 PWs)   bands (ev):

   -46.5201 -22.7815 -22.7743 -22.7328 -14.4993  -6.4399  -5.9531  -5.9334
     0.1466   0.1794   0.4854   5.9980   6.3422   6.4935   7.5039   7.6364
     8.5605   9.1291   9.1772   9.9689

          k = 0.0000-0.4976-0.4976 (  3388 PWs)   bands (ev):

   -46.5200 -22.7811 -22.7811 -22.7326 -14.4887  -6.3373  -5.9664  -5.9664
     0.1231   0.1231   0.5153   5.8898   6.1811   6.3474   7.5245   7.5245
     8.4415   9.2684   9.2684  10.0624

          k = 0.1244 0.1244 0.1244 (  3419 PWs)   bands (ev):

   -46.5214 -22.7430 -22.7425 -22.7425 -14.6241  -6.6785  -6.0089  -6.0089
     0.1624   0.1624   0.3936   7.2927   7.6658   7.6658   8.4433   8.4433
     9.0610   9.2070   9.6620   9.6620

          k = 0.1244 0.1244 0.2488 (  3400 PWs)   bands (ev):

   -46.5210 -22.7595 -22.7420 -22.7418 -14.5894  -6.6776  -5.9909  -5.9636
     0.1722   0.1776   0.4891   6.8544   7.4228   7.5854   8.0941   8.1070
     8.7039   9.1874   9.4603   9.4982

          k = 0.1244 0.1244 0.3732 (  3401 PWs)   bands (ev):

   -46.5207 -22.7763 -22.7413 -22.7411 -14.5542  -6.7277  -5.9727  -5.8572
     0.1813   0.2762   0.4949   6.3632   7.2499   7.4775   7.6232   7.9260
     8.7293   9.0619   9.2598   9.2729

          k = 0.1244 0.1244-0.4976 (  3414 PWs)   bands (ev):

   -46.5206 -22.7832 -22.7410 -22.7409 -14.5394  -6.7584  -5.9651  -5.8000
     0.1848   0.4058   0.4064   6.1482   7.2945   7.3372   7.4308   7.8702
     8.8555   9.0010   9.0708   9.1982

          k = 0.1244 0.2488 0.2488 (  3408 PWs)   bands (ev):

   -46.5207 -22.7590 -22.7583 -22.7413 -14.5589  -6.5996  -5.9833  -5.9474
     0.1064   0.1550   0.5382   6.6265   7.1485   7.3775   7.7297   8.0046
     8.3494   9.2525   9.3160   9.5933

          k = 0.1244 0.2488 0.3732 (  3411 PWs)   bands (ev):

   -46.5204 -22.7753 -22.7578 -22.7406 -14.5279  -6.5723  -5.9542  -5.8941
     0.0865   0.1810   0.4852   6.2891   6.8927   7.1067   7.5287   7.8378
     8.3883   9.0869   9.2490   9.6347

          k = 0.1244 0.2488-0.4976 (  3410 PWs)   bands (ev):

   -46.5203 -22.7822 -22.7575 -22.7403 -14.5149  -6.5763  -5.9382  -5.8579
     0.0760   0.2407   0.4145   6.0989   6.8414   6.9940   7.4411   7.7950
     8.4531   9.0921   9.1225   9.6267

          k = 0.1244 0.3732 0.3732 (  3411 PWs)   bands (ev):

   -46.5201 -22.7745 -22.7742 -22.7399 -14.5013  -6.4221  -5.9556  -5.9001
     0.0489   0.0951   0.4167   6.1429   6.5799   6.6617   7.5467   7.6973
     8.2356   9.1002   9.3357   9.8971

          k = 0.1244 0.3732-0.4976 (  3400 PWs)   bands (ev):

   -46.5200 -22.7812 -22.7740 -22.7397 -14.4901  -6.3676  -5.9310  -5.9180
     0.0287   0.0860   0.3688   5.9993   6.4972   6.5364   7.5220   7.6624
     8.1656   9.2601   9.2642   9.9699

          k = 0.1244-0.4976-0.4976 (  3396 PWs)   bands (ev):

   -46.5198 -22.7807 -22.7807 -22.7394 -14.4798  -6.2635  -5.9435  -5.9435
     0.0252   0.0252   0.3355   5.8921   6.3498   6.4392   7.5850   7.5850
     8.0239   9.3554   9.3554  10.0729

          k = 0.2488 0.2488 0.2488 (  3389 PWs)   bands (ev):

   -46.5204 -22.7584 -22.7576 -22.7576 -14.5313  -6.4838  -5.9492  -5.9492
     0.0123   0.0123   0.5411   6.4794   7.1298   7.1298   7.6431   7.8267
     7.8267   9.4320   9.4320   9.5703

          k = 0.2488 0.2488 0.3732 (  3395 PWs)   bands (ev):

   -46.5201 -22.7744 -22.7573 -22.7569 -14.5033  -6.4087  -5.9143  -5.9046
    -0.0826  -0.0015   0.4080   6.2561   6.8373   7.1130   7.2521   7.7397
     7.9200   9.3080   9.5335   9.6525

          k = 0.2488 0.2488-0.4976 (  3400 PWs)   bands (ev):

   -46.5200 -22.7813 -22.7570 -22.7566 -14.4916  -6.3938  -5.8996  -5.8679
    -0.1222   0.0493   0.2952   6.0740   6.9102   6.9961   7.1075   7.7189
     7.9970   9.2571   9.5440   9.6588

          k = 0.2488 0.3732 0.3732 (  3387 PWs)   bands (ev):

   -46.5198 -22.7737 -22.7734 -22.7564 -14.4784  -6.2468  -5.9053  -5.8765
    -0.1678  -0.1417   0.2161   6.1452   6.5807   6.9420   7.2030   7.7148
     7.7879   9.4394   9.5885   9.8958

          k = 0.2488 0.3732-0.4976 (  3396 PWs)   bands (ev):

   -46.5197 -22.7803 -22.7732 -22.7561 -14.4680  -6.1857  -5.8805  -5.8778
    -0.2180  -0.1315   0.0872   5.9910   6.5057   6.9766   7.1363   7.7023
     7.7824   9.4983   9.6006   9.9807

          k = 0.2488-0.4976-0.4976 (  3412 PWs)   bands (ev):

   -46.5195 -22.7800 -22.7800 -22.7558 -14.4581  -6.0791  -5.8864  -5.8864
    -0.2034  -0.2034  -0.0493   5.8821   6.3555   7.0139   7.1855   7.6856
     7.6856   9.6233   9.6233  10.0986

          k = 0.3732 0.3732 0.3732 (  3389 PWs)   bands (ev):

   -46.5195 -22.7729 -22.7726 -22.7726 -14.4553  -6.0639  -5.8530  -5.8530
    -0.3270  -0.3270  -0.0562   6.0504   6.5833   6.5833   7.3113   7.7228
     7.7228   9.7776   9.7776   9.9630

          k = 0.3732 0.3732-0.4976 (  3396 PWs)   bands (ev):

   -46.5193 -22.7795 -22.7725 -22.7723 -14.4456  -5.9865  -5.8425  -5.8307
    -0.4024  -0.3394  -0.2139   5.9090   6.4762   6.5849   7.3831   7.7238
     7.7491   9.8160   9.9122  10.0310

          k = 0.3732-0.4976-0.4976 (  3412 PWs)   bands (ev):

   -46.5192 -22.7792 -22.7792 -22.7721 -14.4363  -5.8848  -5.8267  -5.8267
    -0.4230  -0.4230  -0.3841   5.8014   6.3613   6.5446   7.5383   7.7347
     7.7347   9.9696   9.9696  10.1248

          k =-0.4976-0.4976-0.4976 (  3448 PWs)   bands (ev):

   -46.5191 -22.7789 -22.7789 -22.7789 -14.4272  -5.8011  -5.8011  -5.8011
    -0.5119  -0.5119  -0.5119   5.7067   6.3636   6.3636   7.7441   7.7441
     7.7441  10.1356  10.1356  10.1356

     highest occupied level (ev):    10.1356

!    total energy              =    -745.57442131 Ry
     total all-electron energy =    -18431.131118 Ry
     estimated scf accuracy    <          8.9E-13 Ry

     The total energy is the sum of the following terms:
     one-electron contribution =     -69.39666147 Ry
     hartree contribution      =      60.40638456 Ry
     xc contribution           =     -61.36081886 Ry
     ewald contribution        =    -206.15552520 Ry
     one-center paw contrib.   =    -469.06780035 Ry

     convergence has been achieved in  22 iterations

     Forces acting on atoms (cartesian axes, Ry/au):

     atom    1 type  1   force =     0.00000000    0.00000000    0.00000000
     atom    2 type  2   force =     0.00000000    0.00000000    0.00000000
     atom    3 type  3   force =     0.00000000    0.00000000    0.00000000
     atom    4 type  3   force =     0.00000000    0.00000000    0.00000000
     atom    5 type  3   force =     0.00000000    0.00000000    0.00000000

     Total force =     0.000000     Total SCF correction =     0.000000


     Computing stress (Cartesian axis) and pressure

          total   stress  (Ry/bohr**3)                   (kbar)     P=        0.02
   0.00000013   0.00000000   0.00000000            0.02        0.00        0.00
   0.00000000   0.00000013   0.00000000            0.00        0.02        0.00
   0.00000000   0.00000000   0.00000013            0.00        0.00        0.02

     Energy error            =      7.4E-09 Ry
     Gradient error          =      0.0E+00 Ry/Bohr
     Cell gradient error     =      1.8E-02 kbar

     bfgs converged in   4 scf cycles and   3 bfgs steps
     (criteria: energy <  1.0E-06 Ry, force <  1.0E-05 Ry/Bohr, cell <  1.0E-01 kbar)

     End of BFGS Geometry Optimization

     Final enthalpy           =    -745.5744213124 Ry

     File ./tmp/BaTiO3_pristine.bfgs deleted, as requested
Begin final coordinates
     new unit-cell volume =    440.14244 a.u.^3 (    65.22238 Ang^3 )
     density =      5.93696 g/cm^3

CELL_PARAMETERS (alat=  7.57000000)
   1.004851461   0.000000000   0.000000000
   0.000000000   1.004851461   0.000000000
   0.000000000   0.000000000   1.004851461

ATOMIC_POSITIONS (crystal)
Ba               0.0000000000        0.0000000000        0.0000000000
Ti               0.5000000000        0.5000000000        0.5000000000
O                0.5000000000        0.5000000000        0.0000000000
O                0.5000000000        0.0000000000        0.5000000000
O                0.0000000000        0.5000000000        0.5000000000
End final coordinates



     Writing config-only to output data dir ./tmp/BaTiO3_pristine.save/ :
     XML data file

     Final scf calculation at the relaxed structure.
     The G-vectors are recalculated for the final unit cell
     Results may differ from those at the preceding step.

     Parallelization info
     --------------------
     sticks:   dense  smooth     PW     G-vecs:    dense   smooth      PW
     Min         277     137     41                 9775     3449     557
     Max         278     138     43                 9778     3452     558
     Sum        2217    1101    333                78205    27609    4457

     Using Slab Decomposition



     bravais-lattice index     =            1
     lattice parameter (alat)  =       7.5700  a.u.
     unit-cell volume          =     440.1424 (a.u.)^3
     number of atoms/cell      =            5
     number of atomic types    =            3
     number of electrons       =        40.00
     number of Kohn-Sham states=           20
     kinetic-energy cutoff     =      60.0000  Ry
     charge density cutoff     =     480.0000  Ry
     scf convergence threshold =      1.0E-12
     mixing beta               =       0.3000
     number of iterations used =            8  plain     mixing
     press convergence thresh. =      1.0E-01
     Exchange-correlation= SLA  PW   PBX  PBC
                           (   1   4   3   4   0   0   0)

     celldm(1)=   7.570000  celldm(2)=   0.000000  celldm(3)=   0.000000
     celldm(4)=   0.000000  celldm(5)=   0.000000  celldm(6)=   0.000000

     crystal axes: (cart. coord. in units of alat)
               a(1) = (   1.004851   0.000000   0.000000 )  
               a(2) = (   0.000000   1.004851   0.000000 )  
               a(3) = (   0.000000   0.000000   1.004851 )  

     reciprocal axes: (cart. coord. in units 2 pi/alat)
               b(1) = (  0.995172  0.000000  0.000000 )  
               b(2) = (  0.000000  0.995172  0.000000 )  
               b(3) = (  0.000000  0.000000  0.995172 )  


     PseudoPot. # 1 for Ba read from file:
     ./pseudo/Ba.pbe-spn-kjpaw_psl.1.0.0.UPF
     MD5 check sum: a94004ef8cdd1ef6024fa921b83633cc
     Pseudo is Projector augmented-wave + core cor, Zval = 10.0
     Generated using &quot;atomic&quot; code by A. Dal Corso  v.6.2.2
     Shape of augmentation charge: PSQ
     Using radial grid of 1251 points,  7 beta functions with: 
                l(1) =   0
                l(2) =   0
                l(3) =   0
                l(4) =   1
                l(5) =   1
                l(6) =   2
                l(7) =   2
     Q(r) pseudized with 0 coefficients 


     PseudoPot. # 2 for Ti read from file:
     ./pseudo/Ti.pbe-spn-kjpaw_psl.1.0.0.UPF
     MD5 check sum: 7ea84e4330344cbc938d542ff58a5c10
     Pseudo is Projector augmented-wave + core cor, Zval = 12.0
     Generated using &quot;atomic&quot; code by A. Dal Corso  v.6.2.2
     Shape of augmentation charge: PSQ
     Using radial grid of 1177 points,  6 beta functions with: 
                l(1) =   0
                l(2) =   0
                l(3) =   1
                l(4) =   1
                l(5) =   2
                l(6) =   2
     Q(r) pseudized with 0 coefficients 


     PseudoPot. # 3 for O  read from file:
     ./pseudo/O.pbe-n-kjpaw_psl.1.0.0.UPF
     MD5 check sum: 62c11a45e085f03adfe5482d7843b034
     Pseudo is Projector augmented-wave + core cor, Zval =  6.0
     Generated using &quot;atomic&quot; code by A. Dal Corso  v.6.3
     Shape of augmentation charge: PSQ
     Using radial grid of 1095 points,  4 beta functions with: 
                l(1) =   0
                l(2) =   0
                l(3) =   1
                l(4) =   1
     Q(r) pseudized with 0 coefficients 


     atomic species   valence    mass     pseudopotential
     Ba               10.00   137.32700     Ba( 1.00)
     Ti               12.00    47.86700     Ti( 1.00)
     O                 6.00    15.99900     O ( 1.00)

     48 Sym. Ops., with inversion, found



   Cartesian axes

     site n.     atom                  positions (alat units)
         1        Ba     tau(   1) = (   0.0000000   0.0000000   0.0000000  )
         2        Ti     tau(   2) = (   0.5024257   0.5024257   0.5024257  )
         3        O      tau(   3) = (   0.5024257   0.5024257   0.0000000  )
         4        O      tau(   4) = (   0.5024257   0.0000000   0.5024257  )
         5        O      tau(   5) = (   0.0000000   0.5024257   0.5024257  )

     number of k points=    35
                       cart. coord. in units 2pi/alat
        k(    1) = (   0.0000000   0.0000000   0.0000000), wk =   0.0039062
        k(    2) = (   0.0000000   0.0000000   0.1243965), wk =   0.0234375
        k(    3) = (   0.0000000   0.0000000   0.2487930), wk =   0.0234375
        k(    4) = (   0.0000000   0.0000000   0.3731895), wk =   0.0234375
        k(    5) = (   0.0000000   0.0000000  -0.4975860), wk =   0.0117188
        k(    6) = (   0.0000000   0.1243965   0.1243965), wk =   0.0468750
        k(    7) = (   0.0000000   0.1243965   0.2487930), wk =   0.0937500
        k(    8) = (   0.0000000   0.1243965   0.3731895), wk =   0.0937500
        k(    9) = (   0.0000000   0.1243965  -0.4975860), wk =   0.0468750
        k(   10) = (   0.0000000   0.2487930   0.2487930), wk =   0.0468750
        k(   11) = (   0.0000000   0.2487930   0.3731895), wk =   0.0937500
        k(   12) = (   0.0000000   0.2487930  -0.4975860), wk =   0.0468750
        k(   13) = (   0.0000000   0.3731895   0.3731895), wk =   0.0468750
        k(   14) = (   0.0000000   0.3731895  -0.4975860), wk =   0.0468750
        k(   15) = (   0.0000000  -0.4975860  -0.4975860), wk =   0.0117188
        k(   16) = (   0.1243965   0.1243965   0.1243965), wk =   0.0312500
        k(   17) = (   0.1243965   0.1243965   0.2487930), wk =   0.0937500
        k(   18) = (   0.1243965   0.1243965   0.3731895), wk =   0.0937500
        k(   19) = (   0.1243965   0.1243965  -0.4975860), wk =   0.0468750
        k(   20) = (   0.1243965   0.2487930   0.2487930), wk =   0.0937500
        k(   21) = (   0.1243965   0.2487930   0.3731895), wk =   0.1875000
        k(   22) = (   0.1243965   0.2487930  -0.4975860), wk =   0.0937500
        k(   23) = (   0.1243965   0.3731895   0.3731895), wk =   0.0937500
        k(   24) = (   0.1243965   0.3731895  -0.4975860), wk =   0.0937500
        k(   25) = (   0.1243965  -0.4975860  -0.4975860), wk =   0.0234375
        k(   26) = (   0.2487930   0.2487930   0.2487930), wk =   0.0312500
        k(   27) = (   0.2487930   0.2487930   0.3731895), wk =   0.0937500
        k(   28) = (   0.2487930   0.2487930  -0.4975860), wk =   0.0468750
        k(   29) = (   0.2487930   0.3731895   0.3731895), wk =   0.0937500
        k(   30) = (   0.2487930   0.3731895  -0.4975860), wk =   0.0937500
        k(   31) = (   0.2487930  -0.4975860  -0.4975860), wk =   0.0234375
        k(   32) = (   0.3731895   0.3731895   0.3731895), wk =   0.0312500
        k(   33) = (   0.3731895   0.3731895  -0.4975860), wk =   0.0468750
        k(   34) = (   0.3731895  -0.4975860  -0.4975860), wk =   0.0234375
        k(   35) = (  -0.4975860  -0.4975860  -0.4975860), wk =   0.0039062

     Dense  grid:    78205 G-vectors     FFT dimensions: (  54,  54,  54)

     Smooth grid:    27609 G-vectors     FFT dimensions: (  40,  40,  40)

     Estimated max dynamical RAM per process >      58.26 MB

     Estimated total dynamical RAM >     466.05 MB

     Check: negative core charge=   -0.000002

     Initial potential from superposition of free atoms

     starting charge      39.9815, renormalised to      40.0000
     Starting wfcs are   27 randomized atomic wfcs
     Checking if some PAW data can be deallocated... 

     total cpu time spent up to now is     3724.5 secs

     Self-consistent Calculation

     iteration #  1     ecut=    60.00 Ry     beta= 0.30
     Davidson diagonalization with overlap
     c_bands:  1 eigenvalues not converged
     c_bands:  1 eigenvalues not converged
     c_bands:  1 eigenvalues not converged
     c_bands:  2 eigenvalues not converged
     c_bands:  1 eigenvalues not converged
     c_bands:  1 eigenvalues not converged
     ethr =  1.00E-06,  avg # of iterations = 18.5

     total cpu time spent up to now is     3798.9 secs

     total energy              =    -745.17955524 Ry
     estimated scf accuracy    <       1.94309329 Ry

     iteration #  2     ecut=    60.00 Ry     beta= 0.30
     Davidson diagonalization with overlap
     ethr =  4.86E-03,  avg # of iterations =  1.3

     total cpu time spent up to now is     3810.2 secs

     total energy              =    -744.82186357 Ry
     estimated scf accuracy    <       0.59719125 Ry

     iteration #  3     ecut=    60.00 Ry     beta= 0.30
     Davidson diagonalization with overlap
     c_bands:  5 eigenvalues not converged
     c_bands:  1 eigenvalues not converged
     c_bands:  1 eigenvalues not converged
     ethr =  1.49E-03,  avg # of iterations = 15.2

     total cpu time spent up to now is     3848.5 secs

     total energy              =    -746.51193950 Ry
     estimated scf accuracy    <      26.22488308 Ry

     iteration #  4     ecut=    60.00 Ry     beta= 0.30
     Davidson diagonalization with overlap
     ethr =  1.49E-03,  avg # of iterations =  1.9

     total cpu time spent up to now is     3860.7 secs

     total energy              =    -744.14387662 Ry
     estimated scf accuracy    <      23.03730203 Ry

     iteration #  5     ecut=    60.00 Ry     beta= 0.30
     Davidson diagonalization with overlap
     ethr =  1.49E-03,  avg # of iterations = 12.1

     total cpu time spent up to now is     3885.7 secs

     total energy              =    -744.87981523 Ry
     estimated scf accuracy    <       1.59106913 Ry

     iteration #  6     ecut=    60.00 Ry     beta= 0.30
     Davidson diagonalization with overlap
     c_bands:  1 eigenvalues not converged
     ethr =  1.49E-03,  avg # of iterations =  8.6

     total cpu time spent up to now is     3906.5 secs

     total energy              =    -745.40999965 Ry
     estimated scf accuracy    <       0.13280102 Ry

     iteration #  7     ecut=    60.00 Ry     beta= 0.30
     Davidson diagonalization with overlap
     ethr =  3.32E-04,  avg # of iterations =  5.2

     total cpu time spent up to now is     3920.5 secs

     total energy              =    -745.49405063 Ry
     estimated scf accuracy    <       0.11915032 Ry

     iteration #  8     ecut=    60.00 Ry     beta= 0.30
     Davidson diagonalization with overlap
     ethr =  2.98E-04,  avg # of iterations =  2.0

     total cpu time spent up to now is     3932.5 secs

     total energy              =    -745.55953905 Ry
     estimated scf accuracy    <       0.09173618 Ry

     iteration #  9     ecut=    60.00 Ry     beta= 0.30
     Davidson diagonalization with overlap
     c_bands:  1 eigenvalues not converged
     c_bands:  1 eigenvalues not converged
     ethr =  2.29E-04,  avg # of iterations =  7.6

     total cpu time spent up to now is     3949.0 secs

     total energy              =    -745.70876158 Ry
     estimated scf accuracy    <       0.47745893 Ry

     iteration # 10     ecut=    60.00 Ry     beta= 0.30
     Davidson diagonalization with overlap
     ethr =  2.29E-04,  avg # of iterations =  1.6

     total cpu time spent up to now is     3960.6 secs

     total energy              =    -745.71397907 Ry
     estimated scf accuracy    <       0.48747491 Ry

     iteration # 11     ecut=    60.00 Ry     beta= 0.30
     Davidson diagonalization with overlap
     ethr =  2.29E-04,  avg # of iterations =  1.5

     total cpu time spent up to now is     3972.0 secs

     total energy              =    -745.86696490 Ry
     estimated scf accuracy    <       0.51939597 Ry

     iteration # 12     ecut=    60.00 Ry     beta= 0.30
     Davidson diagonalization with overlap
     ethr =  2.29E-04,  avg # of iterations =  6.0

     total cpu time spent up to now is     3989.1 secs

     total energy              =    -745.66261122 Ry
     estimated scf accuracy    <       0.94269726 Ry

     iteration # 13     ecut=    60.00 Ry     beta= 0.30
     Davidson diagonalization with overlap
     ethr =  2.29E-04,  avg # of iterations =  3.3

     total cpu time spent up to now is     4003.1 secs

     total energy              =    -745.55595452 Ry
     estimated scf accuracy    <       0.52048168 Ry

     iteration # 14     ecut=    60.00 Ry     beta= 0.30
     Davidson diagonalization with overlap
     ethr =  2.29E-04,  avg # of iterations =  5.2

     total cpu time spent up to now is     4018.9 secs

     total energy              =    -745.56615546 Ry
     estimated scf accuracy    <       0.16672441 Ry

     iteration # 15     ecut=    60.00 Ry     beta= 0.30
     Davidson diagonalization with overlap
     ethr =  2.29E-04,  avg # of iterations =  2.9

     total cpu time spent up to now is     4031.3 secs

     total energy              =    -745.55600155 Ry
     estimated scf accuracy    <       0.10344589 Ry

     iteration # 16     ecut=    60.00 Ry     beta= 0.30
     Davidson diagonalization with overlap
     ethr =  2.29E-04,  avg # of iterations =  2.1

     total cpu time spent up to now is     4044.3 secs

     total energy              =    -745.59809877 Ry
     estimated scf accuracy    <       0.05699817 Ry

     iteration # 17     ecut=    60.00 Ry     beta= 0.30
     Davidson diagonalization with overlap
     ethr =  1.42E-04,  avg # of iterations =  1.8

     total cpu time spent up to now is     4056.1 secs

     total energy              =    -745.52025927 Ry
     estimated scf accuracy    <       0.11480892 Ry

     iteration # 18     ecut=    60.00 Ry     beta= 0.30
     Davidson diagonalization with overlap
     ethr =  1.42E-04,  avg # of iterations =  9.9

     total cpu time spent up to now is     4079.3 secs

     total energy              =    -745.67507943 Ry
     estimated scf accuracy    <       0.15804757 Ry

     iteration # 19     ecut=    60.00 Ry     beta= 0.30
     Davidson diagonalization with overlap
     c_bands:  1 eigenvalues not converged
     ethr =  1.42E-04,  avg # of iterations = 10.5

     total cpu time spent up to now is     4102.7 secs

     total energy              =    -745.49807761 Ry
     estimated scf accuracy    <       1.44709799 Ry

     iteration # 20     ecut=    60.00 Ry     beta= 0.30
     Davidson diagonalization with overlap
     ethr =  1.42E-04,  avg # of iterations = 10.1

     total cpu time spent up to now is     4126.4 secs

     total energy              =    -745.59628034 Ry
     estimated scf accuracy    <       0.18083903 Ry

     iteration # 21     ecut=    60.00 Ry     beta= 0.30
     Davidson diagonalization with overlap
     ethr =  1.42E-04,  avg # of iterations =  1.1

     total cpu time spent up to now is     4137.9 secs

     total energy              =    -745.52920110 Ry
     estimated scf accuracy    <       0.20020913 Ry

     iteration # 22     ecut=    60.00 Ry     beta= 0.30
     Davidson diagonalization with overlap
     ethr =  1.42E-04,  avg # of iterations =  8.7

     total cpu time spent up to now is     4158.6 secs

     total energy              =    -745.57481935 Ry
     estimated scf accuracy    <       0.01346506 Ry

     iteration # 23     ecut=    60.00 Ry     beta= 0.30
     Davidson diagonalization with overlap
     ethr =  3.37E-05,  avg # of iterations = 12.3

     total cpu time spent up to now is     4188.1 secs

     total energy              =    -745.60467262 Ry
     estimated scf accuracy    <       0.28999716 Ry

     iteration # 24     ecut=    60.00 Ry     beta= 0.30
     Davidson diagonalization with overlap
     ethr =  3.37E-05,  avg # of iterations =  1.2

     total cpu time spent up to now is     4199.9 secs

     total energy              =    -745.62038365 Ry
     estimated scf accuracy    <       0.26328999 Ry

     iteration # 25     ecut=    60.00 Ry     beta= 0.30
     Davidson diagonalization with overlap
     ethr =  3.37E-05,  avg # of iterations =  1.8

     total cpu time spent up to now is     4212.1 secs

     total energy              =    -745.50106956 Ry
     estimated scf accuracy    <       0.29626278 Ry

     iteration # 26     ecut=    60.00 Ry     beta= 0.30
     Davidson diagonalization with overlap
     ethr =  3.37E-05,  avg # of iterations = 13.5

     total cpu time spent up to now is     4244.9 secs

     total energy              =    -745.57896663 Ry
     estimated scf accuracy    <       0.04138126 Ry

     iteration # 27     ecut=    60.00 Ry     beta= 0.30
     Davidson diagonalization with overlap
     ethr =  3.37E-05,  avg # of iterations =  1.6

     total cpu time spent up to now is     4256.2 secs

     total energy              =    -745.55110796 Ry
     estimated scf accuracy    <       0.03106187 Ry

     iteration # 28     ecut=    60.00 Ry     beta= 0.30
     Davidson diagonalization with overlap
     c_bands:  4 eigenvalues not converged
     c_bands:  4 eigenvalues not converged
     c_bands:  2 eigenvalues not converged
     c_bands:  1 eigenvalues not converged
     c_bands:  1 eigenvalues not converged
     c_bands:  1 eigenvalues not converged
     c_bands:  2 eigenvalues not converged
     c_bands:  2 eigenvalues not converged
     c_bands:  5 eigenvalues not converged
     c_bands:  1 eigenvalues not converged
     c_bands:  3 eigenvalues not converged
     c_bands:  2 eigenvalues not converged
     ethr =  3.37E-05,  avg # of iterations = 17.1

     total cpu time spent up to now is     4294.7 secs

     total energy              =    -745.61082503 Ry
     estimated scf accuracy    <       1.09062334 Ry

     iteration # 29     ecut=    60.00 Ry     beta= 0.30
     Davidson diagonalization with overlap
     ethr =  3.37E-05,  avg # of iterations =  9.3

     total cpu time spent up to now is     4317.0 secs

     total energy              =    -745.41769260 Ry
     estimated scf accuracy    <       0.53573346 Ry

     iteration # 30     ecut=    60.00 Ry     beta= 0.30
     Davidson diagonalization with overlap
     c_bands:  1 eigenvalues not converged
     c_bands:  1 eigenvalues not converged
     c_bands:  1 eigenvalues not converged
     c_bands:  1 eigenvalues not converged
     c_bands:  1 eigenvalues not converged
     ethr =  3.37E-05,  avg # of iterations = 15.6

     total cpu time spent up to now is     4353.3 secs

     total energy              =    -745.58623251 Ry
     estimated scf accuracy    <       0.11030180 Ry

     iteration # 31     ecut=    60.00 Ry     beta= 0.30
     Davidson diagonalization with overlap
     ethr =  3.37E-05,  avg # of iterations =  1.7

     total cpu time spent up to now is     4364.6 secs

     total energy              =    -745.63665179 Ry
     estimated scf accuracy    <       0.08352683 Ry

     iteration # 32     ecut=    60.00 Ry     beta= 0.30
     Davidson diagonalization with overlap
     ethr =  3.37E-05,  avg # of iterations =  7.9

     total cpu time spent up to now is     4385.4 secs

     total energy              =    -745.55639821 Ry
     estimated scf accuracy    <       0.27090896 Ry

     iteration # 33     ecut=    60.00 Ry     beta= 0.30
     Davidson diagonalization with overlap
     ethr =  3.37E-05,  avg # of iterations =  9.3

     total cpu time spent up to now is     4409.2 secs

     total energy              =    -745.57649934 Ry
     estimated scf accuracy    <       0.03333583 Ry

     iteration # 34     ecut=    60.00 Ry     beta= 0.30
     Davidson diagonalization with overlap
     ethr =  3.37E-05,  avg # of iterations =  1.4

     total cpu time spent up to now is     4420.9 secs

     total energy              =    -745.56352670 Ry
     estimated scf accuracy    <       0.02967533 Ry

     iteration # 35     ecut=    60.00 Ry     beta= 0.30
     Davidson diagonalization with overlap
     ethr =  3.37E-05,  avg # of iterations =  8.5

     total cpu time spent up to now is     4442.4 secs

     total energy              =    -745.57442723 Ry
     estimated scf accuracy    <       0.00436730 Ry

     iteration # 36     ecut=    60.00 Ry     beta= 0.30
     Davidson diagonalization with overlap
     ethr =  1.09E-05,  avg # of iterations =  2.5

     total cpu time spent up to now is     4455.1 secs

     total energy              =    -745.57404526 Ry
     estimated scf accuracy    <       0.00303776 Ry

     iteration # 37     ecut=    60.00 Ry     beta= 0.30
     Davidson diagonalization with overlap
     ethr =  7.59E-06,  avg # of iterations =  3.0

     total cpu time spent up to now is     4468.0 secs

     total energy              =    -745.57376430 Ry
     estimated scf accuracy    <       0.00119116 Ry

     iteration # 38     ecut=    60.00 Ry     beta= 0.30
     Davidson diagonalization with overlap
     ethr =  2.98E-06,  avg # of iterations =  8.3

     total cpu time spent up to now is     4488.2 secs

     total energy              =    -745.57484269 Ry
     estimated scf accuracy    <       0.00057823 Ry

     iteration # 39     ecut=    60.00 Ry     beta= 0.30
     Davidson diagonalization with overlap
     ethr =  1.45E-06,  avg # of iterations =  3.3

     total cpu time spent up to now is     4501.9 secs

     total energy              =    -745.57471551 Ry
     estimated scf accuracy    <       0.00107634 Ry

     iteration # 40     ecut=    60.00 Ry     beta= 0.30
     Davidson diagonalization with overlap
     ethr =  1.45E-06,  avg # of iterations =  1.0

     total cpu time spent up to now is     4513.6 secs

     total energy              =    -745.57478312 Ry
     estimated scf accuracy    <       0.00078274 Ry

     iteration # 41     ecut=    60.00 Ry     beta= 0.30
     Davidson diagonalization with overlap
     ethr =  1.45E-06,  avg # of iterations =  1.3

     total cpu time spent up to now is     4525.3 secs

     total energy              =    -745.57458499 Ry
     estimated scf accuracy    <       0.00092390 Ry

     iteration # 42     ecut=    60.00 Ry     beta= 0.30
     Davidson diagonalization with overlap
     ethr =  1.45E-06,  avg # of iterations =  1.0

     total cpu time spent up to now is     4536.4 secs

     total energy              =    -745.57448661 Ry
     estimated scf accuracy    <       0.00058449 Ry

     iteration # 43     ecut=    60.00 Ry     beta= 0.30
     Davidson diagonalization with overlap
     ethr =  1.45E-06,  avg # of iterations =  2.5

     total cpu time spent up to now is     4549.4 secs

     total energy              =    -745.57441077 Ry
     estimated scf accuracy    <       0.00023761 Ry

     iteration # 44     ecut=    60.00 Ry     beta= 0.30
     Davidson diagonalization with overlap
     ethr =  5.94E-07,  avg # of iterations =  8.5

     total cpu time spent up to now is     4570.4 secs

     total energy              =    -745.57462299 Ry
     estimated scf accuracy    <       0.00040667 Ry

     iteration # 45     ecut=    60.00 Ry     beta= 0.30
     Davidson diagonalization with overlap
     ethr =  5.94E-07,  avg # of iterations =  1.1

     total cpu time spent up to now is     4582.1 secs

     total energy              =    -745.57453103 Ry
     estimated scf accuracy    <       0.00027162 Ry

     iteration # 46     ecut=    60.00 Ry     beta= 0.30
     Davidson diagonalization with overlap
     ethr =  5.94E-07,  avg # of iterations =  5.6

     total cpu time spent up to now is     4597.0 secs

     total energy              =    -745.57458725 Ry
     estimated scf accuracy    <       0.00000431 Ry

     iteration # 47     ecut=    60.00 Ry     beta= 0.30
     Davidson diagonalization with overlap
     ethr =  1.08E-08,  avg # of iterations = 14.2

     total cpu time spent up to now is     4630.9 secs

     total energy              =    -745.57459994 Ry
     estimated scf accuracy    <       0.00006966 Ry

     iteration # 48     ecut=    60.00 Ry     beta= 0.30
     Davidson diagonalization with overlap
     ethr =  1.08E-08,  avg # of iterations =  8.8

     total cpu time spent up to now is     4655.4 secs

     total energy              =    -745.57460480 Ry
     estimated scf accuracy    <       0.00000469 Ry

     iteration # 49     ecut=    60.00 Ry     beta= 0.30
     Davidson diagonalization with overlap
     ethr =  1.08E-08,  avg # of iterations =  8.1

     total cpu time spent up to now is     4675.6 secs

     total energy              =    -745.57460820 Ry
     estimated scf accuracy    <       0.00000295 Ry

     iteration # 50     ecut=    60.00 Ry     beta= 0.30
     Davidson diagonalization with overlap
     ethr =  7.37E-09,  avg # of iterations =  2.0

     total cpu time spent up to now is     4687.9 secs

     total energy              =    -745.57460796 Ry
     estimated scf accuracy    <       0.00000288 Ry

     iteration # 51     ecut=    60.00 Ry     beta= 0.30
     Davidson diagonalization with overlap
     ethr =  7.19E-09,  avg # of iterations =  1.3

     total cpu time spent up to now is     4699.7 secs

     total energy              =    -745.57460763 Ry
     estimated scf accuracy    <       0.00000225 Ry

     iteration # 52     ecut=    60.00 Ry     beta= 0.30
     Davidson diagonalization with overlap
     ethr =  5.61E-09,  avg # of iterations =  1.4

     total cpu time spent up to now is     4711.5 secs

     total energy              =    -745.57460745 Ry
     estimated scf accuracy    <       0.00000146 Ry

     iteration # 53     ecut=    60.00 Ry     beta= 0.30
     Davidson diagonalization with overlap
     ethr =  3.66E-09,  avg # of iterations =  3.1

     total cpu time spent up to now is     4724.4 secs

     total energy              =    -745.57460747 Ry
     estimated scf accuracy    <       0.00000074 Ry

     iteration # 54     ecut=    60.00 Ry     beta= 0.30
     Davidson diagonalization with overlap
     ethr =  1.84E-09,  avg # of iterations =  4.9

     total cpu time spent up to now is     4738.7 secs

     total energy              =    -745.57460768 Ry
     estimated scf accuracy    <       0.00000007 Ry

     iteration # 55     ecut=    60.00 Ry     beta= 0.30
     Davidson diagonalization with overlap
     ethr =  1.69E-10,  avg # of iterations =  8.5

     total cpu time spent up to now is     4758.3 secs

     total energy              =    -745.57460776 Ry
     estimated scf accuracy    <          2.6E-09 Ry

     iteration # 56     ecut=    60.00 Ry     beta= 0.30
     Davidson diagonalization with overlap
     ethr =  6.55E-12,  avg # of iterations = 10.0

     total cpu time spent up to now is     4781.7 secs

     total energy              =    -745.57460778 Ry
     estimated scf accuracy    <          1.1E-09 Ry

     iteration # 57     ecut=    60.00 Ry     beta= 0.30
     Davidson diagonalization with overlap
     c_bands:  2 eigenvalues not converged
     c_bands:  2 eigenvalues not converged
     c_bands:  2 eigenvalues not converged
     c_bands:  1 eigenvalues not converged
     c_bands:  5 eigenvalues not converged
     c_bands:  2 eigenvalues not converged
     c_bands:  5 eigenvalues not converged
     c_bands:  5 eigenvalues not converged
     c_bands:  5 eigenvalues not converged
     c_bands:  3 eigenvalues not converged
     c_bands:  3 eigenvalues not converged
     c_bands:  3 eigenvalues not converged
     c_bands:  1 eigenvalues not converged
     c_bands:  1 eigenvalues not converged
     c_bands:  2 eigenvalues not converged
     ethr =  2.66E-12,  avg # of iterations = 19.4

     total cpu time spent up to now is     4836.8 secs

     total energy              =    -745.57460784 Ry
     estimated scf accuracy    <       0.00000037 Ry

     iteration # 58     ecut=    60.00 Ry     beta= 0.30
     Davidson diagonalization with overlap
     ethr =  2.66E-12,  avg # of iterations =  2.2

     total cpu time spent up to now is     4848.3 secs

     total energy              =    -745.57460782 Ry
     estimated scf accuracy    <       0.00000038 Ry

     iteration # 59     ecut=    60.00 Ry     beta= 0.30
     Davidson diagonalization with overlap
     ethr =  2.66E-12,  avg # of iterations =  5.5

     total cpu time spent up to now is     4865.0 secs

     total energy              =    -745.57460778 Ry
     estimated scf accuracy    <       0.00000034 Ry

     iteration # 60     ecut=    60.00 Ry     beta= 0.30
     Davidson diagonalization with overlap
     ethr =  2.66E-12,  avg # of iterations = 14.5

     total cpu time spent up to now is     4899.6 secs

     total energy              =    -745.57460779 Ry
     estimated scf accuracy    <       0.00000011 Ry

     iteration # 61     ecut=    60.00 Ry     beta= 0.30
     Davidson diagonalization with overlap
     ethr =  2.66E-12,  avg # of iterations =  2.2

     total cpu time spent up to now is     4911.3 secs

     total energy              =    -745.57460775 Ry
     estimated scf accuracy    <       0.00000011 Ry

     iteration # 62     ecut=    60.00 Ry     beta= 0.30
     Davidson diagonalization with overlap
     c_bands:  1 eigenvalues not converged
     c_bands:  1 eigenvalues not converged
     c_bands:  3 eigenvalues not converged
     c_bands:  2 eigenvalues not converged
     c_bands:  1 eigenvalues not converged
     c_bands:  2 eigenvalues not converged
     ethr =  2.66E-12,  avg # of iterations = 16.6

     total cpu time spent up to now is     4952.8 secs

     total energy              =    -745.57460777 Ry
     estimated scf accuracy    <          3.3E-09 Ry

     iteration # 63     ecut=    60.00 Ry     beta= 0.30
     Davidson diagonalization with overlap
     ethr =  2.66E-12,  avg # of iterations =  8.1

     total cpu time spent up to now is     4975.3 secs

     total energy              =    -745.57460777 Ry
     estimated scf accuracy    <          8.7E-10 Ry

     iteration # 64     ecut=    60.00 Ry     beta= 0.30
     Davidson diagonalization with overlap
     ethr =  2.18E-12,  avg # of iterations =  1.9

     total cpu time spent up to now is     4987.0 secs

     total energy              =    -745.57460777 Ry
     estimated scf accuracy    <          5.3E-10 Ry

     iteration # 65     ecut=    60.00 Ry     beta= 0.30
     Davidson diagonalization with overlap
     ethr =  1.33E-12,  avg # of iterations =  2.0

     total cpu time spent up to now is     4999.2 secs

     total energy              =    -745.57460777 Ry
     estimated scf accuracy    <          2.9E-10 Ry

     iteration # 66     ecut=    60.00 Ry     beta= 0.30
     Davidson diagonalization with overlap
     ethr =  7.25E-13,  avg # of iterations =  5.6

     total cpu time spent up to now is     5014.3 secs

     total energy              =    -745.57460777 Ry
     estimated scf accuracy    <          5.1E-12 Ry

     iteration # 67     ecut=    60.00 Ry     beta= 0.30
     Davidson diagonalization with overlap
     ethr =  1.00E-13,  avg # of iterations =  7.8

     total cpu time spent up to now is     5032.9 secs

     total energy              =    -745.57460777 Ry
     estimated scf accuracy    <          2.8E-11 Ry

     iteration # 68     ecut=    60.00 Ry     beta= 0.30
     Davidson diagonalization with overlap
     ethr =  1.00E-13,  avg # of iterations =  1.2

     total cpu time spent up to now is     5044.6 secs

     total energy              =    -745.57460777 Ry
     estimated scf accuracy    <          1.9E-11 Ry

     iteration # 69     ecut=    60.00 Ry     beta= 0.30
     Davidson diagonalization with overlap
     ethr =  1.00E-13,  avg # of iterations = 11.2

     total cpu time spent up to now is     5071.2 secs

     total energy              =    -745.57460777 Ry
     estimated scf accuracy    <          4.1E-10 Ry

     iteration # 70     ecut=    60.00 Ry     beta= 0.30
     Davidson diagonalization with overlap
     ethr =  1.00E-13,  avg # of iterations =  1.5

     total cpu time spent up to now is     5083.1 secs

     total energy              =    -745.57460777 Ry
     estimated scf accuracy    <          3.1E-10 Ry

     iteration # 71     ecut=    60.00 Ry     beta= 0.30
     Davidson diagonalization with overlap
     ethr =  1.00E-13,  avg # of iterations =  7.9

     total cpu time spent up to now is     5103.3 secs

     total energy              =    -745.57460777 Ry
     estimated scf accuracy    <          8.3E-10 Ry

     iteration # 72     ecut=    60.00 Ry     beta= 0.30
     Davidson diagonalization with overlap
     ethr =  1.00E-13,  avg # of iterations =  4.2

     total cpu time spent up to now is     5117.8 secs

     total energy              =    -745.57460777 Ry
     estimated scf accuracy    <          5.8E-10 Ry

     iteration # 73     ecut=    60.00 Ry     beta= 0.30
     Davidson diagonalization with overlap
     ethr =  1.00E-13,  avg # of iterations =  6.3

     total cpu time spent up to now is     5133.0 secs

     total energy              =    -745.57460777 Ry
     estimated scf accuracy    <          3.8E-10 Ry

     iteration # 74     ecut=    60.00 Ry     beta= 0.30
     Davidson diagonalization with overlap
     ethr =  1.00E-13,  avg # of iterations =  1.2

     total cpu time spent up to now is     5144.7 secs

     total energy              =    -745.57460777 Ry
     estimated scf accuracy    <          4.6E-10 Ry

     iteration # 75     ecut=    60.00 Ry     beta= 0.30
     Davidson diagonalization with overlap
     ethr =  1.00E-13,  avg # of iterations = 12.1

     total cpu time spent up to now is     5174.7 secs

     total energy              =    -745.57460777 Ry
     estimated scf accuracy    <          1.7E-10 Ry

     iteration # 76     ecut=    60.00 Ry     beta= 0.30
     Davidson diagonalization with overlap
     ethr =  1.00E-13,  avg # of iterations =  2.7

     total cpu time spent up to now is     5188.0 secs

     total energy              =    -745.57460777 Ry
     estimated scf accuracy    <          8.4E-11 Ry

     iteration # 77     ecut=    60.00 Ry     beta= 0.30
     Davidson diagonalization with overlap
     ethr =  1.00E-13,  avg # of iterations =  2.1

     total cpu time spent up to now is     5200.8 secs

     total energy              =    -745.57460777 Ry
     estimated scf accuracy    <          6.7E-11 Ry

     iteration # 78     ecut=    60.00 Ry     beta= 0.30
     Davidson diagonalization with overlap
     ethr =  1.00E-13,  avg # of iterations =  3.4

     total cpu time spent up to now is     5213.7 secs

     total energy              =    -745.57460777 Ry
     estimated scf accuracy    <          4.0E-11 Ry

     iteration # 79     ecut=    60.00 Ry     beta= 0.30
     Davidson diagonalization with overlap
     ethr =  1.00E-13,  avg # of iterations =  2.5

     total cpu time spent up to now is     5226.3 secs

     total energy              =    -745.57460777 Ry
     estimated scf accuracy    <          2.5E-11 Ry

     iteration # 80     ecut=    60.00 Ry     beta= 0.30
     Davidson diagonalization with overlap
     ethr =  1.00E-13,  avg # of iterations =  2.0

     total cpu time spent up to now is     5239.3 secs

     total energy              =    -745.57460777 Ry
     estimated scf accuracy    <          1.8E-11 Ry

     iteration # 81     ecut=    60.00 Ry     beta= 0.30
     Davidson diagonalization with overlap
     ethr =  1.00E-13,  avg # of iterations =  1.9

     total cpu time spent up to now is     5251.6 secs

     total energy              =    -745.57460777 Ry
     estimated scf accuracy    <          1.3E-11 Ry

     iteration # 82     ecut=    60.00 Ry     beta= 0.30
     Davidson diagonalization with overlap
     ethr =  1.00E-13,  avg # of iterations =  3.2

     total cpu time spent up to now is     5264.6 secs

     total energy              =    -745.57460777 Ry
     estimated scf accuracy    <          2.4E-12 Ry

     iteration # 83     ecut=    60.00 Ry     beta= 0.30
     Davidson diagonalization with overlap
     ethr =  1.00E-13,  avg # of iterations =  3.0

     total cpu time spent up to now is     5277.4 secs

     End of self-consistent calculation

          k = 0.0000 0.0000 0.0000 (  3407 PWs)   bands (ev):

   -46.5216 -22.7360 -22.7360 -22.7360 -14.6688  -6.6996  -6.0236  -6.0236
     0.1622   0.1622   0.1622   7.8556   7.8556   7.8556   9.0639   9.0639
     9.0639   9.9930   9.9930   9.9930

          k = 0.0000 0.0000 0.1244 (  3451 PWs)   bands (ev):

   -46.5215 -22.7431 -22.7358 -22.7358 -14.6532  -6.7045  -6.0189  -6.0134
     0.1846   0.1846   0.2195   7.6048   7.8163   7.8163   8.8907   8.8907
     8.9313   9.6039   9.8813   9.8813

          k = 0.0000 0.0000 0.2488 (  3459 PWs)   bands (ev):

   -46.5212 -22.7601 -22.7351 -22.7351 -14.6150  -6.7594  -6.0074  -5.9369
     0.2398   0.2398   0.3560   7.0087   7.6880   7.6880   8.5816   8.5816
     8.6426   8.9172   9.6756   9.6756

          k = 0.0000 0.0000 0.3732 (  3483 PWs)   bands (ev):

   -46.5209 -22.7770 -22.7345 -22.7345 -14.5760  -6.8541  -5.9960  -5.8081
     0.2970   0.2970   0.4903   6.4304   7.5104   7.5104   8.3872   8.3883
     8.3883   8.4080   9.5080   9.5080

          k = 0.0000 0.0000-0.4976 (  3450 PWs)   bands (ev):

   -46.5208 -22.7839 -22.7342 -22.7342 -14.5597  -6.8996  -5.9912  -5.7445
     0.3213   0.3213   0.5454   6.1969   7.4256   7.4256   8.2260   8.2891
     8.3320   8.3320   9.4454   9.4454

          k = 0.0000 0.1244 0.1244 (  3465 PWs)   bands (ev):

   -46.5214 -22.7430 -22.7426 -22.7355 -14.6383  -6.6964  -6.0163  -6.0074
     0.1581   0.2075   0.3009   7.4496   7.6896   7.7877   8.5291   8.7311
     9.0768   9.3515   9.7504   9.7510

          k = 0.0000 0.1244 0.2488 (  3476 PWs)   bands (ev):

   -46.5211 -22.7597 -22.7421 -22.7349 -14.6020  -6.7205  -6.0010  -5.9506
     0.1854   0.2644   0.4031   6.9373   7.5141   7.6835   8.0794   8.4361
     8.8127   9.0632   9.5121   9.5744

          k = 0.0000 0.1244 0.3732 (  3466 PWs)   bands (ev):

   -46.5208 -22.7766 -22.7414 -22.7342 -14.5650  -6.7914  -5.9853  -5.8360
     0.2496   0.3233   0.4642   6.3952   7.3822   7.5192   7.6733   8.2551
     8.5212   9.0167   9.3209   9.3523

          k = 0.0000 0.1244-0.4976 (  3450 PWs)   bands (ev):

   -46.5206 -22.7835 -22.7411 -22.7340 -14.5494  -6.8291  -5.9788  -5.7765
     0.2863   0.3483   0.4781   6.1701   7.3632   7.4360   7.4847   8.2063
     8.4248   9.0608   9.2036   9.2495

          k = 0.0000 0.2488 0.2488 (  3455 PWs)   bands (ev):

   -46.5208 -22.7592 -22.7585 -22.7342 -14.5702  -6.6539  -5.9971  -5.9388
     0.1451   0.3253   0.4229   6.7039   7.1559   7.5037   7.6509   8.1372
     8.6736   9.1450   9.2084   9.6541

          k = 0.0000 0.2488 0.3732 (  3439 PWs)   bands (ev):

   -46.5204 -22.7755 -22.7580 -22.7336 -14.5380  -6.6388  -5.9717  -5.8881
     0.1687   0.3757   0.3885   6.3092   6.9216   7.0710   7.5419   7.9512
     8.6967   8.9637   9.1157   9.6678

          k = 0.0000 0.2488-0.4976 (  3446 PWs)   bands (ev):

   -46.5203 -22.7824 -22.7577 -22.7333 -14.5245  -6.6477  -5.9559  -5.8545
     0.2107   0.3233   0.4154   6.1088   6.8006   6.9781   7.4654   7.9145
     8.7838   8.8713   9.0415   9.6470

          k = 0.0000 0.3732 0.3732 (  3436 PWs)   bands (ev):

   -46.5201 -22.7747 -22.7744 -22.7330 -14.5107  -6.4925  -5.9758  -5.9100
     0.1297   0.2576   0.4564   6.1402   6.5272   6.5804   7.5514   7.6866
     8.6720   8.9226   9.2254   9.9058

          k = 0.0000 0.3732-0.4976 (  3458 PWs)   bands (ev):

   -46.5200 -22.7814 -22.7742 -22.7327 -14.4993  -6.4398  -5.9530  -5.9334
     0.1466   0.1794   0.4854   5.9980   6.3422   6.4935   7.5039   7.6364
     8.5605   9.1291   9.1772   9.9688

          k = 0.0000-0.4976-0.4976 (  3468 PWs)   bands (ev):

   -46.5199 -22.7810 -22.7810 -22.7325 -14.4887  -6.3372  -5.9664  -5.9664
     0.1231   0.1231   0.5153   5.8896   6.1809   6.3474   7.5244   7.5244
     8.4413   9.2683   9.2683  10.0623

          k = 0.1244 0.1244 0.1244 (  3458 PWs)   bands (ev):

   -46.5213 -22.7429 -22.7423 -22.7423 -14.6241  -6.6785  -6.0088  -6.0088
     0.1623   0.1623   0.3936   7.2926   7.6657   7.6657   8.4433   8.4433
     9.0609   9.2070   9.6621   9.6621

          k = 0.1244 0.1244 0.2488 (  3463 PWs)   bands (ev):

   -46.5210 -22.7594 -22.7419 -22.7417 -14.5894  -6.6775  -5.9908  -5.9635
     0.1722   0.1776   0.4891   6.8544   7.4227   7.5853   8.0940   8.1070
     8.7038   9.1874   9.4602   9.4980

          k = 0.1244 0.1244 0.3732 (  3462 PWs)   bands (ev):

   -46.5206 -22.7762 -22.7412 -22.7410 -14.5542  -6.7276  -5.9726  -5.8572
     0.1813   0.2762   0.4948   6.3631   7.2498   7.4774   7.6232   7.9259
     8.7292   9.0618   9.2598   9.2729

          k = 0.1244 0.1244-0.4976 (  3440 PWs)   bands (ev):

   -46.5205 -22.7831 -22.7409 -22.7408 -14.5394  -6.7583  -5.9650  -5.7999
     0.1848   0.4058   0.4064   6.1483   7.2945   7.3372   7.4309   7.8702
     8.8555   9.0010   9.0708   9.1983

          k = 0.1244 0.2488 0.2488 (  3478 PWs)   bands (ev):

   -46.5207 -22.7589 -22.7582 -22.7412 -14.5589  -6.5996  -5.9832  -5.9473
     0.1064   0.1550   0.5382   6.6265   7.1484   7.3774   7.7297   8.0044
     8.3493   9.2524   9.3159   9.5932

          k = 0.1244 0.2488 0.3732 (  3445 PWs)   bands (ev):

   -46.5203 -22.7752 -22.7577 -22.7405 -14.5279  -6.5722  -5.9542  -5.8940
     0.0865   0.1810   0.4852   6.2892   6.8927   7.1066   7.5287   7.8378
     8.3882   9.0870   9.2491   9.6347

          k = 0.1244 0.2488-0.4976 (  3454 PWs)   bands (ev):

   -46.5202 -22.7821 -22.7574 -22.7402 -14.5149  -6.5763  -5.9381  -5.8579
     0.0760   0.2407   0.4145   6.0989   6.8414   6.9939   7.4411   7.7950
     8.4531   9.0920   9.1226   9.6266

          k = 0.1244 0.3732 0.3732 (  3456 PWs)   bands (ev):

   -46.5200 -22.7744 -22.7741 -22.7398 -14.5013  -6.4220  -5.9555  -5.9000
     0.0489   0.0951   0.4167   6.1429   6.5799   6.6617   7.5467   7.6972
     8.2355   9.1002   9.3357   9.8971

          k = 0.1244 0.3732-0.4976 (  3460 PWs)   bands (ev):

   -46.5199 -22.7810 -22.7738 -22.7396 -14.4902  -6.3676  -5.9309  -5.9180
     0.0287   0.0860   0.3688   5.9993   6.4972   6.5362   7.5220   7.6623
     8.1654   9.2601   9.2641   9.9699

          k = 0.1244-0.4976-0.4976 (  3452 PWs)   bands (ev):

   -46.5197 -22.7806 -22.7806 -22.7393 -14.4798  -6.2634  -5.9434  -5.9434
     0.0252   0.0252   0.3354   5.8920   6.3498   6.4392   7.5849   7.5849
     8.0238   9.3553   9.3553  10.0729

          k = 0.2488 0.2488 0.2488 (  3467 PWs)   bands (ev):

   -46.5203 -22.7583 -22.7575 -22.7575 -14.5313  -6.4837  -5.9492  -5.9492
     0.0123   0.0123   0.5411   6.4794   7.1297   7.1297   7.6430   7.8266
     7.8266   9.4319   9.4319   9.5702

          k = 0.2488 0.2488 0.3732 (  3446 PWs)   bands (ev):

   -46.5200 -22.7743 -22.7572 -22.7568 -14.5033  -6.4086  -5.9143  -5.9045
    -0.0827  -0.0015   0.4080   6.2561   6.8373   7.1130   7.2521   7.7396
     7.9199   9.3079   9.5335   9.6525

          k = 0.2488 0.2488-0.4976 (  3464 PWs)   bands (ev):

   -46.5199 -22.7811 -22.7569 -22.7565 -14.4916  -6.3937  -5.8996  -5.8679
    -0.1222   0.0493   0.2952   6.0740   6.9101   6.9960   7.1073   7.7189
     7.9969   9.2571   9.5440   9.6587

          k = 0.2488 0.3732 0.3732 (  3449 PWs)   bands (ev):

   -46.5197 -22.7736 -22.7733 -22.7563 -14.4784  -6.2467  -5.9052  -5.8764
    -0.1678  -0.1417   0.2161   6.1451   6.5806   6.9419   7.2029   7.7147
     7.7878   9.4393   9.5884   9.8958

          k = 0.2488 0.3732-0.4976 (  3428 PWs)   bands (ev):

   -46.5195 -22.7802 -22.7730 -22.7559 -14.4680  -6.1856  -5.8804  -5.8778
    -0.2180  -0.1315   0.0872   5.9910   6.5057   6.9766   7.1363   7.7024
     7.7823   9.4983   9.6006   9.9807

          k = 0.2488-0.4976-0.4976 (  3440 PWs)   bands (ev):

   -46.5194 -22.7798 -22.7798 -22.7556 -14.4582  -6.0790  -5.8864  -5.8864
    -0.2034  -0.2034  -0.0493   5.8821   6.3555   7.0138   7.1856   7.6855
     7.6855   9.6233   9.6233  10.0986

          k = 0.3732 0.3732 0.3732 (  3446 PWs)   bands (ev):

   -46.5194 -22.7728 -22.7725 -22.7725 -14.4553  -6.0638  -5.8529  -5.8529
    -0.3270  -0.3270  -0.0562   6.0503   6.5833   6.5833   7.3113   7.7228
     7.7228   9.7776   9.7776   9.9630

          k = 0.3732 0.3732-0.4976 (  3438 PWs)   bands (ev):

   -46.5192 -22.7794 -22.7724 -22.7722 -14.4456  -5.9864  -5.8424  -5.8307
    -0.4024  -0.3394  -0.2139   5.9089   6.4763   6.5849   7.3831   7.7238
     7.7491   9.8160   9.9123  10.0309

          k = 0.3732-0.4976-0.4976 (  3456 PWs)   bands (ev):

   -46.5191 -22.7790 -22.7790 -22.7720 -14.4363  -5.8848  -5.8266  -5.8266
    -0.4230  -0.4230  -0.3841   5.8014   6.3613   6.5446   7.5382   7.7348
     7.7348   9.9696   9.9696  10.1247

          k =-0.4976-0.4976-0.4976 (  3448 PWs)   bands (ev):

   -46.5190 -22.7787 -22.7787 -22.7787 -14.4272  -5.8010  -5.8010  -5.8010
    -0.5119  -0.5119  -0.5119   5.7067   6.3637   6.3637   7.7441   7.7441
     7.7441  10.1357  10.1357  10.1357

     highest occupied level (ev):    10.1357

!    total energy              =    -745.57460777 Ry
     total all-electron energy =    -18431.131304 Ry
     estimated scf accuracy    <          1.3E-14 Ry

     The total energy is the sum of the following terms:
     one-electron contribution =     -69.39711682 Ry
     hartree contribution      =      60.40665587 Ry
     xc contribution           =     -61.36083284 Ry
     ewald contribution        =    -206.15552520 Ry
     one-center paw contrib.   =    -469.06778878 Ry

     convergence has been achieved in  83 iterations

     Forces acting on atoms (cartesian axes, Ry/au):

     atom    1 type  1   force =     0.00000000    0.00000000    0.00000000
     atom    2 type  2   force =     0.00000000    0.00000000    0.00000000
     atom    3 type  3   force =     0.00000000    0.00000000    0.00000000
     atom    4 type  3   force =     0.00000000    0.00000000    0.00000000
     atom    5 type  3   force =     0.00000000    0.00000000    0.00000000

     Total force =     0.000000     Total SCF correction =     0.000000


     Computing stress (Cartesian axis) and pressure

          total   stress  (Ry/bohr**3)                   (kbar)     P=        0.01
   0.00000006   0.00000000   0.00000000            0.01        0.00        0.00
   0.00000000   0.00000006   0.00000000            0.00        0.01        0.00
   0.00000000   0.00000000   0.00000006            0.00        0.00        0.01


     Writing all to output data dir ./tmp/BaTiO3_pristine.save/ :
     XML data file, charge density, pseudopotentials, collected wavefunctions

     init_run     :      2.51s CPU     12.54s WALL (       2 calls)
     electrons    :    951.95s CPU   5260.56s WALL (       5 calls)
     update_pot   :      0.21s CPU      0.32s WALL (       3 calls)
     forces       :      0.41s CPU      0.81s WALL (       5 calls)
     stress       :      1.83s CPU      3.31s WALL (       5 calls)

     Called by init_run:
     wfcinit      :      2.06s CPU     12.00s WALL (       2 calls)
     potinit      :      0.16s CPU      0.19s WALL (       2 calls)
     hinit0       :      0.16s CPU      0.18s WALL (       2 calls)

     Called by electrons:
     c_bands      :    806.18s CPU   4572.38s WALL (     303 calls)
     sum_band     :    116.94s CPU    652.28s WALL (     303 calls)
     v_of_rho     :      2.73s CPU      7.75s WALL (     306 calls)
     newd         :      6.65s CPU      7.40s WALL (     306 calls)
     PAW_pot      :     18.93s CPU     16.16s WALL (     309 calls)
     mix_rho      :      0.58s CPU      2.10s WALL (     303 calls)

     Called by c_bands:
     init_us_2    :      2.79s CPU     10.32s WALL (   21735 calls)
     cegterg      :    800.93s CPU   4560.26s WALL (   10615 calls)

     Called by *egterg:
     cdiaghg      :     16.34s CPU     16.54s WALL (   64763 calls)
     h_psi        :    745.69s CPU   4428.86s WALL (   65008 calls)
     s_psi        :      5.29s CPU      5.58s WALL (   65008 calls)
     g_psi        :      1.92s CPU     19.79s WALL (   54323 calls)

     Called by h_psi:
     h_psi:calbec :     15.88s CPU     16.85s WALL (   65008 calls)
     vloc_psi     :    721.48s CPU   4377.71s WALL (   65008 calls)
     add_vuspsi   :      6.16s CPU      6.33s WALL (   65008 calls)

     General routines
     calbec       :     19.39s CPU     20.49s WALL (   78693 calls)
     fft          :      2.80s CPU     11.06s WALL (    4098 calls)
     ffts         :      0.32s CPU      1.64s WALL (     609 calls)
     fftw         :    743.84s CPU   3994.16s WALL ( 1578678 calls)
     interpolate  :      0.41s CPU      1.76s WALL (     306 calls)

     Parallel routines

     PWSCF        :  15m57.43s CPU      1h27m WALL


   This run was terminated on:  11:30:20   6Jul2026            

=------------------------------------------------------------------------------=
   JOB DONE.
=------------------------------------------------------------------------------=
