ANIMSTEPS   15
CRYSTAL
PRIMVEC
    3.893026563    0.000000000    0.000000000
    0.000000000    3.893026563    0.000000000
    0.000000000    0.000000000    3.893026563
PRIMCOORD    1
      5   1
   Sr     0.00000   0.00000   0.00000  -0.00000   0.01287   0.00116
   Ti     1.94651   1.94651   1.94651   0.00000   0.03071   0.00277
   O      1.94651   1.94651   0.00000   0.00000  -0.05596  -0.00455
   O      1.94651   0.00000   1.94651   0.00000  -0.05048  -0.00504
   O      0.00000   1.94651   1.94651   0.00000  -0.05596  -0.00504
PRIMCOORD    2
      5   1
   Sr     0.00000   0.00000   0.00000  -0.00000  -0.00116   0.01287
   Ti     1.94651   1.94651   1.94651  -0.00000  -0.00277   0.03071
   O      1.94651   1.94651   0.00000  -0.00000   0.00504  -0.05048
   O      1.94651   0.00000   1.94651  -0.00000   0.00455  -0.05596
   O      0.00000   1.94651   1.94651  -0.00000   0.00504  -0.05596
PRIMCOORD    3
      5   1
   Sr     0.00000   0.00000   0.00000   0.00505  -0.04403   0.00598
   Ti     1.94651   1.94651   1.94651   0.00505  -0.04403   0.00598
   O      1.94651   1.94651   0.00000   0.00505  -0.04403   0.00598
   O      1.94651   0.00000   1.94651   0.00505  -0.04403   0.00598
   O      0.00000   1.94651   1.94651   0.00505  -0.04403   0.00598
PRIMCOORD    4
      5   1
   Sr     0.00000   0.00000   0.00000   0.04434   0.00539   0.00227
   Ti     1.94651   1.94651   1.94651   0.04434   0.00539   0.00227
   O      1.94651   1.94651   0.00000   0.04434   0.00539   0.00227
   O      1.94651   0.00000   1.94651   0.04434   0.00539   0.00227
   O      0.00000   1.94651   1.94651   0.04434   0.00539   0.00227
PRIMCOORD    5
      5   1
   Sr     0.00000   0.00000   0.00000  -0.00296   0.00568   0.04426
   Ti     1.94651   1.94651   1.94651  -0.00296   0.00568   0.04426
   O      1.94651   1.94651   0.00000  -0.00296   0.00568   0.04426
   O      1.94651   0.00000   1.94651  -0.00296   0.00568   0.04426
   O      0.00000   1.94651   1.94651  -0.00296   0.00568   0.04426
PRIMCOORD    6
      5   1
   Sr     0.00000   0.00000   0.00000  -0.05170  -0.00000   0.00000
   Ti     1.94651   1.94651   1.94651   0.05930   0.00000  -0.00000
   O      1.94651   1.94651   0.00000   0.03903   0.00000  -0.00000
   O      1.94651   0.00000   1.94651   0.03903   0.00000  -0.00000
   O      0.00000   1.94651   1.94651   0.02764   0.00000  -0.00000
PRIMCOORD    7
      5   1
   Sr     0.00000   0.00000   0.00000  -0.00000  -0.00026  -0.05308
   Ti     1.94651   1.94651   1.94651   0.00000   0.00038   0.07686
   O      1.94651   1.94651   0.00000   0.00000   0.00011   0.01483
   O      1.94651   0.00000   1.94651   0.00000   0.00007   0.02297
   O      0.00000   1.94651   1.94651   0.00000   0.00011   0.02297
PRIMCOORD    8
      5   1
   Sr     0.00000   0.00000   0.00000  -0.00000   0.05308  -0.00026
   Ti     1.94651   1.94651   1.94651   0.00000  -0.07686   0.00038
   O      1.94651   1.94651   0.00000   0.00000  -0.02297   0.00007
   O      1.94651   0.00000   1.94651   0.00000  -0.01483   0.00011
   O      0.00000   1.94651   1.94651   0.00000  -0.02297   0.00011
PRIMCOORD    9
      5   1
   Sr     0.00000   0.00000   0.00000   0.00000  -0.00000   0.00000
   Ti     1.94651   1.94651   1.94651   0.00000   0.00000  -0.00000
   O      1.94651   1.94651   0.00000   0.00009   0.01814  -0.00000
   O      1.94651   0.00000   1.94651  -0.00009   0.00000  -0.06835
   O      0.00000   1.94651   1.94651  -0.00000  -0.01814   0.06835
PRIMCOORD   10
      5   1
   Sr     0.00000   0.00000   0.00000  -0.00000   0.00000  -0.00000
   Ti     1.94651   1.94651   1.94651   0.00000  -0.00000   0.00000
   O      1.94651   1.94651   0.00000  -0.07068  -0.00206  -0.00000
   O      1.94651   0.00000   1.94651   0.07068   0.00000  -0.00064
   O      0.00000   1.94651   1.94651   0.00000   0.00206   0.00064
PRIMCOORD   11
      5   1
   Sr     0.00000   0.00000   0.00000   0.00000   0.00000  -0.00000
   Ti     1.94651   1.94651   1.94651  -0.00000  -0.00000   0.00000
   O      1.94651   1.94651   0.00000   0.00215  -0.06831  -0.00000
   O      1.94651   0.00000   1.94651  -0.00215  -0.00000  -0.01812
   O      0.00000   1.94651   1.94651  -0.00000   0.06831   0.01812
PRIMCOORD   12
      5   1
   Sr     0.00000   0.00000   0.00000  -0.00235  -0.00000  -0.00000
   Ti     1.94651   1.94651   1.94651  -0.02604   0.00000   0.00000
   O      1.94651   1.94651   0.00000   0.06335  -0.00000  -0.00000
   O      1.94651   0.00000   1.94651   0.06335   0.00000   0.00000
   O      0.00000   1.94651   1.94651  -0.03590  -0.00000  -0.00000
PRIMCOORD   13
      5   1
   Sr     0.00000   0.00000   0.00000  -0.00000  -0.00003   0.00149
   Ti     1.94651   1.94651   1.94651  -0.00000   0.00001  -0.00039
   O      1.94651   1.94651   0.00000   0.00000  -0.00080  -0.08388
   O      1.94651   0.00000   1.94651   0.00000   0.00174   0.03845
   O      0.00000   1.94651   1.94651   0.00000  -0.00080   0.03845
PRIMCOORD   14
      5   1
   Sr     0.00000   0.00000   0.00000   0.00000   0.00149   0.00003
   Ti     1.94651   1.94651   1.94651  -0.00000  -0.00039  -0.00001
   O      1.94651   1.94651   0.00000   0.00000   0.03845  -0.00174
   O      1.94651   0.00000   1.94651   0.00000  -0.08388   0.00080
   O      0.00000   1.94651   1.94651  -0.00000   0.03845   0.00080
PRIMCOORD   15
      5   1
   Sr     0.00000   0.00000   0.00000  -0.00557   0.00000   0.00000
   Ti     1.94651   1.94651   1.94651  -0.02777   0.00000  -0.00000
   O      1.94651   1.94651   0.00000   0.00928   0.00000  -0.00000
   O      1.94651   0.00000   1.94651   0.00928  -0.00000  -0.00000
   O      0.00000   1.94651   1.94651   0.09500   0.00000   0.00000
