
     Program PWSCF v.6.7MaX starts on 15Jul2026 at 21:19: 8 

     This program is part of the open-source Quantum ESPRESSO suite
     for quantum simulation of materials; please cite
         "P. Giannozzi et al., J. Phys.:Condens. Matter 21 395502 (2009);
         "P. Giannozzi et al., J. Phys.:Condens. Matter 29 465901 (2017);
          URL http://www.quantum-espresso.org", 
     in publications or presentations arising from this work. More details at
     http://www.quantum-espresso.org/quote

     Parallel version (MPI), running on     8 processors

     MPI processes distributed on     1 nodes
     R & G space division:  proc/nbgrp/npool/nimage =       8
     Reading input from scf.in

     Current dimensions of program PWSCF are:
     Max number of different atomic species (ntypx) = 10
     Max number of k-points (npk) =  40000
     Max angular momentum in pseudopotentials (lmaxx) =  3
     file Sr.pbesol-spn-kjpaw_psl.1.0.0.UPF: wavefunction(s)  4P renormalized
     file Ti.pbesol-spn-kjpaw_psl.1.0.0.UPF: wavefunction(s)  3S 3P 3D renormalized
     file O.pbesol-n-kjpaw_psl.1.0.0.UPF: wavefunction(s)  2S 2P renormalized

     Subspace diagonalization in iterative solution of the eigenvalue problem:
     one sub-group per band group will be used
     scalapack distributed-memory algorithm (size of sub-group:  2*  2 procs)


     Parallelization info
     --------------------
     sticks:   dense  smooth     PW     G-vecs:    dense   smooth      PW
     Min         259     130     38                 8843     3146     508
     Max         260     131     39                 8846     3149     510
     Sum        2077    1041    305                70751    25173    4067



     bravais-lattice index     =            1
     lattice parameter (alat)  =       7.3568  a.u.
     unit-cell volume          =     398.1610 (a.u.)^3
     number of atoms/cell      =            5
     number of atomic types    =            3
     number of electrons       =        40.00
     number of Kohn-Sham states=           20
     kinetic-energy cutoff     =      60.0000  Ry
     charge density cutoff     =     480.0000  Ry
     scf convergence threshold =      1.0E-12
     mixing beta               =       0.3000
     number of iterations used =            8  plain     mixing
     Exchange-correlation= SLA  PW   PSX  PSC
                           (   1   4  10   8   0   0   0)

     celldm(1)=   7.356754  celldm(2)=   0.000000  celldm(3)=   0.000000
     celldm(4)=   0.000000  celldm(5)=   0.000000  celldm(6)=   0.000000

     crystal axes: (cart. coord. in units of alat)
               a(1) = (   1.000000   0.000000   0.000000 )  
               a(2) = (   0.000000   1.000000   0.000000 )  
               a(3) = (   0.000000   0.000000   1.000000 )  

     reciprocal axes: (cart. coord. in units 2 pi/alat)
               b(1) = (  1.000000  0.000000  0.000000 )  
               b(2) = (  0.000000  1.000000  0.000000 )  
               b(3) = (  0.000000  0.000000  1.000000 )  


     PseudoPot. # 1 for Sr read from file:
     ./pseudo/Sr.pbesol-spn-kjpaw_psl.1.0.0.UPF
     MD5 check sum: 5f6d651ace59fc2f5ab95f6a3abc31cb
     Pseudo is Projector augmented-wave + core cor, Zval = 10.0
     Generated using &quot;atomic&quot; code by A. Dal Corso  v.6.2.2
     Shape of augmentation charge: PSQ
     Using radial grid of 1221 points,  6 beta functions with: 
                l(1) =   0
                l(2) =   0
                l(3) =   1
                l(4) =   1
                l(5) =   2
                l(6) =   2
     Q(r) pseudized with 0 coefficients 


     PseudoPot. # 2 for Ti read from file:
     ./pseudo/Ti.pbesol-spn-kjpaw_psl.1.0.0.UPF
     MD5 check sum: 37a32a5821746b2d50d64995a8e5b789
     Pseudo is Projector augmented-wave + core cor, Zval = 12.0
     Generated using &quot;atomic&quot; code by A. Dal Corso  v.6.2.2
     Shape of augmentation charge: PSQ
     Using radial grid of 1177 points,  6 beta functions with: 
                l(1) =   0
                l(2) =   0
                l(3) =   1
                l(4) =   1
                l(5) =   2
                l(6) =   2
     Q(r) pseudized with 0 coefficients 


     PseudoPot. # 3 for O  read from file:
     ./pseudo/O.pbesol-n-kjpaw_psl.1.0.0.UPF
     MD5 check sum: cb766521a97cf798d01896eaf7ac9a0a
     Pseudo is Projector augmented-wave + core cor, Zval =  6.0
     Generated using &quot;atomic&quot; code by A. Dal Corso  v.6.3
     Shape of augmentation charge: PSQ
     Using radial grid of 1095 points,  4 beta functions with: 
                l(1) =   0
                l(2) =   0
                l(3) =   1
                l(4) =   1
     Q(r) pseudized with 0 coefficients 


     atomic species   valence    mass     pseudopotential
        Sr            10.00    87.62000     Sr( 1.00)
        Ti            12.00    47.86700     Ti( 1.00)
        O              6.00    15.99900     O ( 1.00)

     48 Sym. Ops., with inversion, found



   Cartesian axes

     site n.     atom                  positions (alat units)
         1           Sr  tau(   1) = (   0.0000000   0.0000000   0.0000000  )
         2           Ti  tau(   2) = (   0.5000000   0.5000000   0.5000000  )
         3           O   tau(   3) = (   0.5000000   0.5000000   0.0000000  )
         4           O   tau(   4) = (   0.5000000   0.0000000   0.5000000  )
         5           O   tau(   5) = (   0.0000000   0.5000000   0.5000000  )

     number of k points=    35
                       cart. coord. in units 2pi/alat
        k(    1) = (   0.0000000   0.0000000   0.0000000), wk =   0.0039062
        k(    2) = (   0.0000000   0.0000000   0.1250000), wk =   0.0234375
        k(    3) = (   0.0000000   0.0000000   0.2500000), wk =   0.0234375
        k(    4) = (   0.0000000   0.0000000   0.3750000), wk =   0.0234375
        k(    5) = (   0.0000000   0.0000000  -0.5000000), wk =   0.0117188
        k(    6) = (   0.0000000   0.1250000   0.1250000), wk =   0.0468750
        k(    7) = (   0.0000000   0.1250000   0.2500000), wk =   0.0937500
        k(    8) = (   0.0000000   0.1250000   0.3750000), wk =   0.0937500
        k(    9) = (   0.0000000   0.1250000  -0.5000000), wk =   0.0468750
        k(   10) = (   0.0000000   0.2500000   0.2500000), wk =   0.0468750
        k(   11) = (   0.0000000   0.2500000   0.3750000), wk =   0.0937500
        k(   12) = (   0.0000000   0.2500000  -0.5000000), wk =   0.0468750
        k(   13) = (   0.0000000   0.3750000   0.3750000), wk =   0.0468750
        k(   14) = (   0.0000000   0.3750000  -0.5000000), wk =   0.0468750
        k(   15) = (   0.0000000  -0.5000000  -0.5000000), wk =   0.0117188
        k(   16) = (   0.1250000   0.1250000   0.1250000), wk =   0.0312500
        k(   17) = (   0.1250000   0.1250000   0.2500000), wk =   0.0937500
        k(   18) = (   0.1250000   0.1250000   0.3750000), wk =   0.0937500
        k(   19) = (   0.1250000   0.1250000  -0.5000000), wk =   0.0468750
        k(   20) = (   0.1250000   0.2500000   0.2500000), wk =   0.0937500
        k(   21) = (   0.1250000   0.2500000   0.3750000), wk =   0.1875000
        k(   22) = (   0.1250000   0.2500000  -0.5000000), wk =   0.0937500
        k(   23) = (   0.1250000   0.3750000   0.3750000), wk =   0.0937500
        k(   24) = (   0.1250000   0.3750000  -0.5000000), wk =   0.0937500
        k(   25) = (   0.1250000  -0.5000000  -0.5000000), wk =   0.0234375
        k(   26) = (   0.2500000   0.2500000   0.2500000), wk =   0.0312500
        k(   27) = (   0.2500000   0.2500000   0.3750000), wk =   0.0937500
        k(   28) = (   0.2500000   0.2500000  -0.5000000), wk =   0.0468750
        k(   29) = (   0.2500000   0.3750000   0.3750000), wk =   0.0937500
        k(   30) = (   0.2500000   0.3750000  -0.5000000), wk =   0.0937500
        k(   31) = (   0.2500000  -0.5000000  -0.5000000), wk =   0.0234375
        k(   32) = (   0.3750000   0.3750000   0.3750000), wk =   0.0312500
        k(   33) = (   0.3750000   0.3750000  -0.5000000), wk =   0.0468750
        k(   34) = (   0.3750000  -0.5000000  -0.5000000), wk =   0.0234375
        k(   35) = (  -0.5000000  -0.5000000  -0.5000000), wk =   0.0039062

     Dense  grid:    70751 G-vectors     FFT dimensions: (  54,  54,  54)

     Smooth grid:    25173 G-vectors     FFT dimensions: (  40,  40,  40)

     Estimated max dynamical RAM per process >      42.62 MB

     Estimated total dynamical RAM >     340.97 MB

     Check: negative core charge=   -0.000002

     Initial potential from superposition of free atoms

     starting charge   39.99155, renormalised to   40.00000
     Starting wfcs are   30 randomized atomic wfcs
     Checking if some PAW data can be deallocated... 

     total cpu time spent up to now is        1.2 secs

     Self-consistent Calculation

     iteration #  1     ecut=    60.00 Ry     beta= 0.30
     Davidson diagonalization with overlap
     ethr =  1.00E-02,  avg # of iterations =  1.0

     total cpu time spent up to now is        2.1 secs

     total energy              =    -561.77807815 Ry
     estimated scf accuracy    <       2.02981146 Ry

     iteration #  2     ecut=    60.00 Ry     beta= 0.30
     Davidson diagonalization with overlap
     ethr =  5.07E-03,  avg # of iterations =  2.2

     total cpu time spent up to now is        3.3 secs

     total energy              =    -562.10557168 Ry
     estimated scf accuracy    <       0.20115966 Ry

     iteration #  3     ecut=    60.00 Ry     beta= 0.30
     Davidson diagonalization with overlap
     c_bands:  1 eigenvalues not converged
     c_bands:  1 eigenvalues not converged
     ethr =  5.03E-04,  avg # of iterations = 13.5

     total cpu time spent up to now is        6.2 secs

     total energy              =    -562.35552738 Ry
     estimated scf accuracy    <       1.78207838 Ry

     iteration #  4     ecut=    60.00 Ry     beta= 0.30
     Davidson diagonalization with overlap
     ethr =  5.03E-04,  avg # of iterations =  2.1

     total cpu time spent up to now is        7.3 secs

     total energy              =    -561.56522303 Ry
     estimated scf accuracy    <       1.22207085 Ry

     iteration #  5     ecut=    60.00 Ry     beta= 0.30
     Davidson diagonalization with overlap
     ethr =  5.03E-04,  avg # of iterations =  9.5

     total cpu time spent up to now is        9.6 secs

     total energy              =    -562.59284411 Ry
     estimated scf accuracy    <       1.67418940 Ry

     iteration #  6     ecut=    60.00 Ry     beta= 0.30
     Davidson diagonalization with overlap
     ethr =  5.03E-04,  avg # of iterations =  2.0

     total cpu time spent up to now is       10.7 secs

     total energy              =    -562.33283949 Ry
     estimated scf accuracy    <       1.11162125 Ry

     iteration #  7     ecut=    60.00 Ry     beta= 0.30
     Davidson diagonalization with overlap
     ethr =  5.03E-04,  avg # of iterations =  5.3

     total cpu time spent up to now is       12.2 secs

     total energy              =    -562.41176400 Ry
     estimated scf accuracy    <       0.32510967 Ry

     iteration #  8     ecut=    60.00 Ry     beta= 0.30
     Davidson diagonalization with overlap
     ethr =  5.03E-04,  avg # of iterations =  1.8

     total cpu time spent up to now is       13.2 secs

     total energy              =    -562.37036758 Ry
     estimated scf accuracy    <       0.29299721 Ry

     iteration #  9     ecut=    60.00 Ry     beta= 0.30
     Davidson diagonalization with overlap
     ethr =  5.03E-04,  avg # of iterations =  1.9

     total cpu time spent up to now is       14.2 secs

     total energy              =    -562.31322764 Ry
     estimated scf accuracy    <       0.18307289 Ry

     iteration # 10     ecut=    60.00 Ry     beta= 0.30
     Davidson diagonalization with overlap
     ethr =  4.58E-04,  avg # of iterations =  3.6

     total cpu time spent up to now is       15.4 secs

     total energy              =    -562.34107432 Ry
     estimated scf accuracy    <       0.03222188 Ry

     iteration # 11     ecut=    60.00 Ry     beta= 0.30
     Davidson diagonalization with overlap
     ethr =  8.06E-05,  avg # of iterations =  8.3

     total cpu time spent up to now is       17.3 secs

     total energy              =    -562.37890405 Ry
     estimated scf accuracy    <       0.01312384 Ry

     iteration # 12     ecut=    60.00 Ry     beta= 0.30
     Davidson diagonalization with overlap
     ethr =  3.28E-05,  avg # of iterations =  2.8

     total cpu time spent up to now is       18.4 secs

     total energy              =    -562.38527059 Ry
     estimated scf accuracy    <       0.00878244 Ry

     iteration # 13     ecut=    60.00 Ry     beta= 0.30
     Davidson diagonalization with overlap
     ethr =  2.20E-05,  avg # of iterations =  7.8

     total cpu time spent up to now is       20.2 secs

     total energy              =    -562.36982046 Ry
     estimated scf accuracy    <       0.04483054 Ry

     iteration # 14     ecut=    60.00 Ry     beta= 0.30
     Davidson diagonalization with overlap
     ethr =  2.20E-05,  avg # of iterations =  8.1

     total cpu time spent up to now is       22.4 secs

     total energy              =    -562.38919834 Ry
     estimated scf accuracy    <       0.00843248 Ry

     iteration # 15     ecut=    60.00 Ry     beta= 0.30
     Davidson diagonalization with overlap
     ethr =  2.11E-05,  avg # of iterations =  6.9

     total cpu time spent up to now is       24.4 secs

     total energy              =    -562.40542749 Ry
     estimated scf accuracy    <       0.07738345 Ry

     iteration # 16     ecut=    60.00 Ry     beta= 0.30
     Davidson diagonalization with overlap
     ethr =  2.11E-05,  avg # of iterations =  1.6

     total cpu time spent up to now is       25.4 secs

     total energy              =    -562.40472815 Ry
     estimated scf accuracy    <       0.08533929 Ry

     iteration # 17     ecut=    60.00 Ry     beta= 0.30
     Davidson diagonalization with overlap
     ethr =  2.11E-05,  avg # of iterations =  1.5

     total cpu time spent up to now is       26.4 secs

     total energy              =    -562.38658655 Ry
     estimated scf accuracy    <       0.08640898 Ry

     iteration # 18     ecut=    60.00 Ry     beta= 0.30
     Davidson diagonalization with overlap
     ethr =  2.11E-05,  avg # of iterations =  2.0

     total cpu time spent up to now is       27.5 secs

     total energy              =    -562.36341197 Ry
     estimated scf accuracy    <       0.05724460 Ry

     iteration # 19     ecut=    60.00 Ry     beta= 0.30
     Davidson diagonalization with overlap
     ethr =  2.11E-05,  avg # of iterations =  9.0

     total cpu time spent up to now is       29.7 secs

     total energy              =    -562.38055660 Ry
     estimated scf accuracy    <       0.00111789 Ry

     iteration # 20     ecut=    60.00 Ry     beta= 0.30
     Davidson diagonalization with overlap
     ethr =  2.79E-06,  avg # of iterations = 11.2

     total cpu time spent up to now is       32.2 secs

     total energy              =    -562.38160436 Ry
     estimated scf accuracy    <       0.02009195 Ry

     iteration # 21     ecut=    60.00 Ry     beta= 0.30
     Davidson diagonalization with overlap
     ethr =  2.79E-06,  avg # of iterations =  1.6

     total cpu time spent up to now is       33.1 secs

     total energy              =    -562.38181499 Ry
     estimated scf accuracy    <       0.01629284 Ry

     iteration # 22     ecut=    60.00 Ry     beta= 0.30
     Davidson diagonalization with overlap
     ethr =  2.79E-06,  avg # of iterations =  1.4

     total cpu time spent up to now is       34.1 secs

     total energy              =    -562.37689795 Ry
     estimated scf accuracy    <       0.01633615 Ry

     iteration # 23     ecut=    60.00 Ry     beta= 0.30
     Davidson diagonalization with overlap
     ethr =  2.79E-06,  avg # of iterations =  9.9

     total cpu time spent up to now is       36.3 secs

     total energy              =    -562.37950507 Ry
     estimated scf accuracy    <       0.00026909 Ry

     iteration # 24     ecut=    60.00 Ry     beta= 0.30
     Davidson diagonalization with overlap
     ethr =  6.73E-07,  avg # of iterations =  6.4

     total cpu time spent up to now is       37.8 secs

     total energy              =    -562.37970863 Ry
     estimated scf accuracy    <       0.00003292 Ry

     iteration # 25     ecut=    60.00 Ry     beta= 0.30
     Davidson diagonalization with overlap
     ethr =  8.23E-08,  avg # of iterations = 13.4

     total cpu time spent up to now is       40.9 secs

     total energy              =    -562.37905930 Ry
     estimated scf accuracy    <       0.00115097 Ry

     iteration # 26     ecut=    60.00 Ry     beta= 0.30
     Davidson diagonalization with overlap
     c_bands:  1 eigenvalues not converged
     c_bands:  1 eigenvalues not converged
     c_bands:  1 eigenvalues not converged
     c_bands:  4 eigenvalues not converged
     c_bands:  4 eigenvalues not converged
     c_bands:  1 eigenvalues not converged
     c_bands:  1 eigenvalues not converged
     ethr =  8.23E-08,  avg # of iterations = 17.3

     total cpu time spent up to now is       45.1 secs

     total energy              =    -562.38095394 Ry
     estimated scf accuracy    <       0.00379040 Ry

     iteration # 27     ecut=    60.00 Ry     beta= 0.30
     Davidson diagonalization with overlap
     ethr =  8.23E-08,  avg # of iterations = 10.2

     total cpu time spent up to now is       47.5 secs

     total energy              =    -562.38020476 Ry
     estimated scf accuracy    <       0.00609488 Ry

     iteration # 28     ecut=    60.00 Ry     beta= 0.30
     Davidson diagonalization with overlap
     ethr =  8.23E-08,  avg # of iterations =  9.8

     total cpu time spent up to now is       49.8 secs

     total energy              =    -562.37976175 Ry
     estimated scf accuracy    <       0.00318814 Ry

     iteration # 29     ecut=    60.00 Ry     beta= 0.30
     Davidson diagonalization with overlap
     ethr =  8.23E-08,  avg # of iterations = 11.1

     total cpu time spent up to now is       52.4 secs

     total energy              =    -562.37975349 Ry
     estimated scf accuracy    <       0.00104268 Ry

     iteration # 30     ecut=    60.00 Ry     beta= 0.30
     Davidson diagonalization with overlap
     ethr =  8.23E-08,  avg # of iterations =  6.9

     total cpu time spent up to now is       54.1 secs

     total energy              =    -562.37969993 Ry
     estimated scf accuracy    <       0.00053023 Ry

     iteration # 31     ecut=    60.00 Ry     beta= 0.30
     Davidson diagonalization with overlap
     ethr =  8.23E-08,  avg # of iterations =  7.1

     total cpu time spent up to now is       55.7 secs

     total energy              =    -562.37959430 Ry
     estimated scf accuracy    <       0.00021918 Ry

     iteration # 32     ecut=    60.00 Ry     beta= 0.30
     Davidson diagonalization with overlap
     ethr =  8.23E-08,  avg # of iterations = 12.1

     total cpu time spent up to now is       58.5 secs

     total energy              =    -562.37967119 Ry
     estimated scf accuracy    <       0.00024771 Ry

     iteration # 33     ecut=    60.00 Ry     beta= 0.30
     Davidson diagonalization with overlap
     ethr =  8.23E-08,  avg # of iterations =  7.5

     total cpu time spent up to now is       60.3 secs

     total energy              =    -562.37969689 Ry
     estimated scf accuracy    <       0.00000999 Ry

     iteration # 34     ecut=    60.00 Ry     beta= 0.30
     Davidson diagonalization with overlap
     ethr =  2.50E-08,  avg # of iterations =  8.3

     total cpu time spent up to now is       62.1 secs

     total energy              =    -562.37970575 Ry
     estimated scf accuracy    <       0.00000957 Ry

     iteration # 35     ecut=    60.00 Ry     beta= 0.30
     Davidson diagonalization with overlap
     ethr =  2.39E-08,  avg # of iterations =  1.0

     total cpu time spent up to now is       63.1 secs

     total energy              =    -562.37970367 Ry
     estimated scf accuracy    <       0.00000582 Ry

     iteration # 36     ecut=    60.00 Ry     beta= 0.30
     Davidson diagonalization with overlap
     ethr =  1.46E-08,  avg # of iterations =  4.5

     total cpu time spent up to now is       64.3 secs

     total energy              =    -562.37970455 Ry
     estimated scf accuracy    <       0.00000033 Ry

     iteration # 37     ecut=    60.00 Ry     beta= 0.30
     Davidson diagonalization with overlap
     ethr =  8.33E-10,  avg # of iterations = 11.8

     total cpu time spent up to now is       67.0 secs

     total energy              =    -562.37970548 Ry
     estimated scf accuracy    <       0.00000422 Ry

     iteration # 38     ecut=    60.00 Ry     beta= 0.30
     Davidson diagonalization with overlap
     ethr =  8.33E-10,  avg # of iterations =  3.4

     total cpu time spent up to now is       68.1 secs

     total energy              =    -562.37970566 Ry
     estimated scf accuracy    <       0.00000280 Ry

     iteration # 39     ecut=    60.00 Ry     beta= 0.30
     Davidson diagonalization with overlap
     ethr =  8.33E-10,  avg # of iterations =  1.7

     total cpu time spent up to now is       69.1 secs

     total energy              =    -562.37970581 Ry
     estimated scf accuracy    <       0.00000280 Ry

     iteration # 40     ecut=    60.00 Ry     beta= 0.30
     Davidson diagonalization with overlap
     ethr =  8.33E-10,  avg # of iterations =  1.4

     total cpu time spent up to now is       70.1 secs

     total energy              =    -562.37970556 Ry
     estimated scf accuracy    <       0.00000291 Ry

     iteration # 41     ecut=    60.00 Ry     beta= 0.30
     Davidson diagonalization with overlap
     ethr =  8.33E-10,  avg # of iterations =  2.2

     total cpu time spent up to now is       71.1 secs

     total energy              =    -562.37970576 Ry
     estimated scf accuracy    <       0.00000229 Ry

     iteration # 42     ecut=    60.00 Ry     beta= 0.30
     Davidson diagonalization with overlap
     ethr =  8.33E-10,  avg # of iterations =  1.2

     total cpu time spent up to now is       72.0 secs

     total energy              =    -562.37970580 Ry
     estimated scf accuracy    <       0.00000255 Ry

     iteration # 43     ecut=    60.00 Ry     beta= 0.30
     Davidson diagonalization with overlap
     ethr =  8.33E-10,  avg # of iterations =  1.0

     total cpu time spent up to now is       73.0 secs

     total energy              =    -562.37970503 Ry
     estimated scf accuracy    <       0.00000260 Ry

     iteration # 44     ecut=    60.00 Ry     beta= 0.30
     Davidson diagonalization with overlap
     ethr =  8.33E-10,  avg # of iterations =  7.9

     total cpu time spent up to now is       74.8 secs

     total energy              =    -562.37970526 Ry
     estimated scf accuracy    <       0.00000019 Ry

     iteration # 45     ecut=    60.00 Ry     beta= 0.30
     Davidson diagonalization with overlap
     ethr =  4.87E-10,  avg # of iterations =  7.3

     total cpu time spent up to now is       76.5 secs

     total energy              =    -562.37970539 Ry
     estimated scf accuracy    <       0.00000015 Ry

     iteration # 46     ecut=    60.00 Ry     beta= 0.30
     Davidson diagonalization with overlap
     ethr =  3.80E-10,  avg # of iterations =  3.1

     total cpu time spent up to now is       77.6 secs

     total energy              =    -562.37970536 Ry
     estimated scf accuracy    <       0.00000016 Ry

     iteration # 47     ecut=    60.00 Ry     beta= 0.30
     Davidson diagonalization with overlap
     ethr =  3.80E-10,  avg # of iterations =  1.2

     total cpu time spent up to now is       78.5 secs

     total energy              =    -562.37970537 Ry
     estimated scf accuracy    <       0.00000011 Ry

     iteration # 48     ecut=    60.00 Ry     beta= 0.30
     Davidson diagonalization with overlap
     ethr =  2.77E-10,  avg # of iterations =  1.2

     total cpu time spent up to now is       79.5 secs

     total energy              =    -562.37970540 Ry
     estimated scf accuracy    <       0.00000012 Ry

     iteration # 49     ecut=    60.00 Ry     beta= 0.30
     Davidson diagonalization with overlap
     ethr =  2.77E-10,  avg # of iterations =  1.9

     total cpu time spent up to now is       80.5 secs

     total energy              =    -562.37970539 Ry
     estimated scf accuracy    <       0.00000019 Ry

     iteration # 50     ecut=    60.00 Ry     beta= 0.30
     Davidson diagonalization with overlap
     ethr =  2.77E-10,  avg # of iterations =  1.2

     total cpu time spent up to now is       81.4 secs

     total energy              =    -562.37970532 Ry
     estimated scf accuracy    <       0.00000016 Ry

     iteration # 51     ecut=    60.00 Ry     beta= 0.30
     Davidson diagonalization with overlap
     ethr =  2.77E-10,  avg # of iterations =  3.3

     total cpu time spent up to now is       82.5 secs

     total energy              =    -562.37970530 Ry
     estimated scf accuracy    <       0.00000004 Ry

     iteration # 52     ecut=    60.00 Ry     beta= 0.30
     Davidson diagonalization with overlap
     ethr =  1.11E-10,  avg # of iterations =  9.7

     total cpu time spent up to now is       84.7 secs

     total energy              =    -562.37970538 Ry
     estimated scf accuracy    <       0.00000023 Ry

     iteration # 53     ecut=    60.00 Ry     beta= 0.30
     Davidson diagonalization with overlap
     ethr =  1.11E-10,  avg # of iterations =  1.1

     total cpu time spent up to now is       85.6 secs

     total energy              =    -562.37970537 Ry
     estimated scf accuracy    <       0.00000019 Ry

     iteration # 54     ecut=    60.00 Ry     beta= 0.30
     Davidson diagonalization with overlap
     ethr =  1.11E-10,  avg # of iterations =  2.0

     total cpu time spent up to now is       86.7 secs

     total energy              =    -562.37970534 Ry
     estimated scf accuracy    <       0.00000013 Ry

     iteration # 55     ecut=    60.00 Ry     beta= 0.30
     Davidson diagonalization with overlap
     ethr =  1.11E-10,  avg # of iterations =  5.7

     total cpu time spent up to now is       88.1 secs

     total energy              =    -562.37970536 Ry
     estimated scf accuracy    <       0.00000002 Ry

     iteration # 56     ecut=    60.00 Ry     beta= 0.30
     Davidson diagonalization with overlap
     ethr =  6.03E-11,  avg # of iterations =  1.5

     total cpu time spent up to now is       89.0 secs

     total energy              =    -562.37970539 Ry
     estimated scf accuracy    <       0.00000003 Ry

     iteration # 57     ecut=    60.00 Ry     beta= 0.30
     Davidson diagonalization with overlap
     ethr =  6.03E-11,  avg # of iterations =  7.7

     total cpu time spent up to now is       90.8 secs

     total energy              =    -562.37970539 Ry
     estimated scf accuracy    <       0.00000022 Ry

     iteration # 58     ecut=    60.00 Ry     beta= 0.30
     Davidson diagonalization with overlap
     ethr =  6.03E-11,  avg # of iterations =  1.6

     total cpu time spent up to now is       91.8 secs

     total energy              =    -562.37970539 Ry
     estimated scf accuracy    <       0.00000020 Ry

     iteration # 59     ecut=    60.00 Ry     beta= 0.30
     Davidson diagonalization with overlap
     ethr =  6.03E-11,  avg # of iterations =  1.1

     total cpu time spent up to now is       92.8 secs

     total energy              =    -562.37970530 Ry
     estimated scf accuracy    <       0.00000020 Ry

     iteration # 60     ecut=    60.00 Ry     beta= 0.30
     Davidson diagonalization with overlap
     ethr =  6.03E-11,  avg # of iterations =  8.1

     total cpu time spent up to now is       95.0 secs

     total energy              =    -562.37970535 Ry
     estimated scf accuracy    <          3.0E-09 Ry

     iteration # 61     ecut=    60.00 Ry     beta= 0.30
     Davidson diagonalization with overlap
     ethr =  7.44E-12,  avg # of iterations =  7.2

     total cpu time spent up to now is       96.7 secs

     total energy              =    -562.37970536 Ry
     estimated scf accuracy    <          1.7E-09 Ry

     iteration # 62     ecut=    60.00 Ry     beta= 0.30
     Davidson diagonalization with overlap
     ethr =  4.28E-12,  avg # of iterations = 11.1

     total cpu time spent up to now is       99.3 secs

     total energy              =    -562.37970536 Ry
     estimated scf accuracy    <       0.00000005 Ry

     iteration # 63     ecut=    60.00 Ry     beta= 0.30
     Davidson diagonalization with overlap
     ethr =  4.28E-12,  avg # of iterations =  1.8

     total cpu time spent up to now is      100.3 secs

     total energy              =    -562.37970534 Ry
     estimated scf accuracy    <       0.00000005 Ry

     iteration # 64     ecut=    60.00 Ry     beta= 0.30
     Davidson diagonalization with overlap
     c_bands:  2 eigenvalues not converged
     c_bands:  1 eigenvalues not converged
     ethr =  4.28E-12,  avg # of iterations = 14.3

     total cpu time spent up to now is      103.7 secs

     total energy              =    -562.37970535 Ry
     estimated scf accuracy    <       0.00000003 Ry

     iteration # 65     ecut=    60.00 Ry     beta= 0.30
     Davidson diagonalization with overlap
     ethr =  4.28E-12,  avg # of iterations = 10.8

     total cpu time spent up to now is      106.2 secs

     total energy              =    -562.37970535 Ry
     estimated scf accuracy    <          7.6E-10 Ry

     iteration # 66     ecut=    60.00 Ry     beta= 0.30
     Davidson diagonalization with overlap
     ethr =  1.90E-12,  avg # of iterations =  4.3

     total cpu time spent up to now is      107.4 secs

     total energy              =    -562.37970535 Ry
     estimated scf accuracy    <          1.4E-09 Ry

     iteration # 67     ecut=    60.00 Ry     beta= 0.30
     Davidson diagonalization with overlap
     ethr =  1.90E-12,  avg # of iterations =  7.7

     total cpu time spent up to now is      109.4 secs

     total energy              =    -562.37970535 Ry
     estimated scf accuracy    <          1.6E-09 Ry

     iteration # 68     ecut=    60.00 Ry     beta= 0.30
     Davidson diagonalization with overlap
     c_bands:  2 eigenvalues not converged
     c_bands:  3 eigenvalues not converged
     ethr =  1.90E-12,  avg # of iterations = 15.5

     total cpu time spent up to now is      113.0 secs

     total energy              =    -562.37970538 Ry
     estimated scf accuracy    <       0.00000007 Ry

     iteration # 69     ecut=    60.00 Ry     beta= 0.30
     Davidson diagonalization with overlap
     ethr =  1.90E-12,  avg # of iterations = 11.5

     total cpu time spent up to now is      115.7 secs

     total energy              =    -562.37970534 Ry
     estimated scf accuracy    <       0.00000017 Ry

     iteration # 70     ecut=    60.00 Ry     beta= 0.30
     Davidson diagonalization with overlap
     c_bands:  2 eigenvalues not converged
     ethr =  1.90E-12,  avg # of iterations = 15.2

     total cpu time spent up to now is      119.2 secs

     total energy              =    -562.37970535 Ry
     estimated scf accuracy    <       0.00000001 Ry

     iteration # 71     ecut=    60.00 Ry     beta= 0.30
     Davidson diagonalization with overlap
     ethr =  1.90E-12,  avg # of iterations =  9.7

     total cpu time spent up to now is      121.3 secs

     total energy              =    -562.37970535 Ry
     estimated scf accuracy    <          2.7E-11 Ry

     iteration # 72     ecut=    60.00 Ry     beta= 0.30
     Davidson diagonalization with overlap
     ethr =  1.00E-13,  avg # of iterations = 10.2

     total cpu time spent up to now is      123.5 secs

     total energy              =    -562.37970535 Ry
     estimated scf accuracy    <          5.4E-11 Ry

     iteration # 73     ecut=    60.00 Ry     beta= 0.30
     Davidson diagonalization with overlap
     ethr =  1.00E-13,  avg # of iterations =  6.0

     total cpu time spent up to now is      125.0 secs

     End of self-consistent calculation

          k = 0.0000 0.0000 0.0000 (  3119 PWs)   bands (ev):

   -46.0676 -22.5273 -22.4562 -22.4562 -22.4562  -7.3493  -6.3386  -6.3386
    -4.5530  -4.5530  -4.5530   7.2021   7.2021   7.2021   8.8370   8.8370
     8.8370   9.7038   9.7038   9.7038

          k = 0.0000 0.0000 0.1250 (  3106 PWs)   bands (ev):

   -46.0673 -22.5503 -22.4557 -22.4557 -22.4407  -7.3548  -6.3408  -6.3324
    -4.5456  -4.5456  -4.4444   6.9918   7.1886   7.1886   8.6259   8.6259
     8.6926   9.2142   9.6026   9.6026

          k = 0.0000 0.0000 0.2500 (  3118 PWs)   bands (ev):

   -46.0667 -22.5917 -22.4546 -22.4546 -22.4171  -7.4204  -6.3174  -6.2507
    -4.5275  -4.5275  -4.2161   6.4634   7.1613   7.1613   8.1791   8.1791
     8.3407   8.3772   9.4563   9.4563

          k = 0.0000 0.0000 0.3750 (  3118 PWs)   bands (ev):

   -46.0661 -22.6264 -22.4535 -22.4535 -22.3998  -7.5285  -6.3022  -6.0700
    -4.5094  -4.5094  -4.0214   5.9001   7.1508   7.1508   7.7139   7.7887
     7.7887   8.0983   9.3561   9.3561

          k = 0.0000 0.0000-0.5000 (  3178 PWs)   bands (ev):

   -46.0660 -22.6399 -22.4530 -22.4530 -22.3936  -7.5786  -6.2959  -5.9774
    -4.5018  -4.5018  -3.9484   5.6572   7.1593   7.1593   7.5001   7.6291
     7.6291   7.9909   9.3205   9.3205

          k = 0.0000 0.1250 0.1250 (  3099 PWs)   bands (ev):

   -46.0671 -22.5604 -22.4671 -22.4553 -22.4264  -7.3420  -6.3589  -6.3205
    -4.5379  -4.4900  -4.4000   6.8454   7.1104   7.1760   8.1872   8.4561
     8.8449   9.0451   9.3302   9.4676

          k = 0.0000 0.1250 0.2500 (  3115 PWs)   bands (ev):

   -46.0665 -22.5882 -22.4708 -22.4541 -22.4119  -7.3661  -6.3357  -6.2664
    -4.5193  -4.4584  -4.2190   6.3977   6.9817   7.1504   7.6022   8.0662
     8.3858   8.8238   9.1561   9.2739

          k = 0.0000 0.1250 0.3750 (  3115 PWs)   bands (ev):

   -46.0659 -22.6173 -22.4669 -22.4530 -22.4036  -7.4459  -6.2896  -6.1371
    -4.5005  -4.4418  -4.0508   5.8804   6.8151   7.1426   7.1639   7.7025
     7.9953   8.6996   9.0249   9.1509

          k = 0.0000 0.1250-0.5000 (  3120 PWs)   bands (ev):

   -46.0657 -22.6293 -22.4644 -22.4525 -22.4009  -7.4878  -6.2744  -6.0604
    -4.4927  -4.4344  -3.9875   5.6478   6.7102   7.0460   7.1544   7.5478
     7.8747   8.6418   8.9752   9.1096

          k = 0.0000 0.2500 0.2500 (  3129 PWs)   bands (ev):

   -46.0659 -22.5849 -22.4935 -22.4530 -22.4108  -7.2668  -6.4021  -6.2210
    -4.4993  -4.3397  -4.1977   6.1512   6.6623   6.9287   7.1274   7.7874
     8.2951   8.6536   8.9787   9.2862

          k = 0.0000 0.2500 0.3750 (  3129 PWs)   bands (ev):

   -46.0653 -22.5932 -22.4965 -22.4519 -22.4173  -7.2351  -6.3542  -6.1931
    -4.4790  -4.3006  -4.1114   5.7987   6.1890   6.6147   7.1211   7.4966
     8.1493   8.5785   8.7863   9.3759

          k = 0.0000 0.2500-0.5000 (  3114 PWs)   bands (ev):

   -46.0651 -22.6000 -22.4919 -22.4514 -22.4223  -7.2433  -6.2509  -6.2376
    -4.4706  -4.2934  -4.0677   5.6214   5.9523   6.5754   7.1389   7.3584
     8.1155   8.5499   8.7236   9.3816

          k = 0.0000 0.3750 0.3750 (  3127 PWs)   bands (ev):

   -46.0648 -22.5666 -22.5196 -22.4508 -22.4397  -7.0087  -6.4389  -6.2286
    -4.4573  -4.1891  -4.1402   5.5577   5.8297   6.0573   7.1045   7.2855
     8.2699   8.4827   8.5241   9.7210

          k = 0.0000 0.3750-0.5000 (  3128 PWs)   bands (ev):

   -46.0645 -22.5597 -22.5192 -22.4549 -22.4503  -6.9204  -6.3929  -6.3182
    -4.4483  -4.1721  -4.1176   5.4505   5.5532   5.9797   7.1171   7.1781
     8.3502   8.4349   8.4476   9.8177

          k = 0.0000-0.5000-0.5000 (  3136 PWs)   bands (ev):

   -46.0643 -22.5304 -22.5304 -22.4809 -22.4499  -6.6866  -6.4526  -6.4526
    -4.4389  -4.1258  -4.1258   5.2753   5.4458   5.7965   7.1057   7.1057
     8.3340   8.4471   8.4471   9.9496

          k = 0.1250 0.1250 0.1250 (  3104 PWs)   bands (ev):

   -46.0668 -22.5654 -22.4666 -22.4666 -22.4173  -7.3164  -6.3434  -6.3434
    -4.4983  -4.4983  -4.3438   6.6947   7.1024   7.1024   8.0829   8.0829
     8.7587   8.9966   9.2808   9.2808

          k = 0.1250 0.1250 0.2500 (  3117 PWs)   bands (ev):

   -46.0663 -22.5842 -22.4737 -22.4655 -22.4089  -7.3078  -6.3142  -6.3049
    -4.5197  -4.4287  -4.2046   6.3158   6.8959   7.0818   7.5915   7.6008
     8.4079   8.9745   9.0236   9.1567

          k = 0.1250 0.1250 0.3750 (  3120 PWs)   bands (ev):

   -46.0657 -22.6086 -22.4684 -22.4643 -22.4070  -7.3625  -6.2648  -6.1856
    -4.5427  -4.3675  -4.0794   5.8603   6.6565   7.0543   7.0991   7.2610
     8.3988   8.7728   8.8180   9.0540

          k = 0.1250 0.1250-0.5000 (  3122 PWs)   bands (ev):

   -46.0654 -22.6194 -22.4641 -22.4638 -22.4075  -7.3967  -6.2477  -6.1113
    -4.5528  -4.3419  -4.0325   5.6401   6.5564   6.9368   7.0300   7.1599
     8.5097   8.5818   8.7370   9.0178

          k = 0.1250 0.2500 0.2500 (  3123 PWs)   bands (ev):

   -46.0657 -22.5791 -22.4929 -22.4669 -22.4106  -7.1965  -6.3677  -6.2427
    -4.5171  -4.3827  -4.1600   6.0809   6.6637   6.9634   6.9854   7.4609
     8.0016   8.9296   8.9464   9.2867

          k = 0.1250 0.2500 0.3750 (  3136 PWs)   bands (ev):

   -46.0651 -22.5858 -22.4960 -22.4647 -22.4198  -7.1499  -6.3185  -6.1927
    -4.5472  -4.3017  -4.1292   5.7857   6.2116   6.6225   6.9324   7.1685
     8.0094   8.7378   8.8734   9.3808

          k = 0.1250 0.2500-0.5000 (  3120 PWs)   bands (ev):

   -46.0649 -22.5923 -22.4914 -22.4628 -22.4267  -7.1522  -6.2326  -6.2095
    -4.5653  -4.2521  -4.1286   5.6188   5.9960   6.5643   6.9323   7.0340
     8.0770   8.6332   8.8429   9.3874

          k = 0.1250 0.3750 0.3750 (  3133 PWs)   bands (ev):

   -46.0645 -22.5609 -22.5190 -22.4634 -22.4407  -6.9202  -6.3895  -6.1945
    -4.5320  -4.2627  -4.1603   5.6102   5.8765   6.0609   6.8824   7.0337
     7.8964   8.7139   8.8002   9.7280

          k = 0.1250 0.3750-0.5000 (  3128 PWs)   bands (ev):

   -46.0643 -22.5553 -22.5186 -22.4617 -22.4557  -6.8289  -6.3504  -6.2609
    -4.5277  -4.2150  -4.1959   5.5580   5.5667   5.9848   6.9065   6.9264
     7.8964   8.7190   8.7706   9.8271

          k = 0.1250-0.5000-0.5000 (  3116 PWs)   bands (ev):

   -46.0640 -22.5298 -22.5298 -22.4779 -22.4612  -6.5858  -6.3980  -6.3980
    -4.5014  -4.2112  -4.2112   5.4166   5.4531   5.7994   6.8893   6.8893
     7.8509   8.7653   8.7653   9.9628

          k = 0.2500 0.2500 0.2500 (  3133 PWs)   bands (ev):

   -46.0651 -22.5672 -22.4916 -22.4916 -22.4165  -7.0423  -6.2774  -6.2774
    -4.4935  -4.4935  -4.1293   5.9271   6.6621   6.6621   7.0188   7.0188
     7.2111   9.0939   9.0939   9.4031

          k = 0.2500 0.2500 0.3750 (  3129 PWs)   bands (ev):

   -46.0645 -22.5664 -22.4975 -22.4903 -22.4298  -6.9336  -6.2599  -6.1743
    -4.6176  -4.3927  -4.1686   5.7524   6.1949   6.5963   6.6134   6.7754
     7.2226   9.0780   9.1941   9.4936

          k = 0.2500 0.2500-0.5000 (  3130 PWs)   bands (ev):

   -46.0643 -22.5714 -22.4905 -22.4898 -22.4394  -6.9093  -6.2287  -6.1264
    -4.6743  -4.2709  -4.2632   5.6103   6.0069   6.4778   6.5490   6.7412
     7.2737   9.0683   9.2141   9.4997

          k = 0.2500 0.3750 0.3750 (  3131 PWs)   bands (ev):

   -46.0640 -22.5462 -22.5176 -22.4911 -22.4466  -6.6955  -6.2547  -6.1213
    -4.6526  -4.4554  -4.2577   5.6828   6.0390   6.0702   6.5208   6.6575
     6.9346   9.2234   9.3111   9.7578

          k = 0.2500 0.3750-0.5000 (  3138 PWs)   bands (ev):

   -46.0637 -22.5444 -22.5172 -22.4889 -22.4582  -6.5911  -6.2385  -6.1181
    -4.6863  -4.3952  -4.3571   5.5646   5.8428   5.9977   6.5235   6.5825
     6.9316   9.2722   9.3324   9.8551

          k = 0.2500-0.5000-0.5000 (  3136 PWs)   bands (ev):

   -46.0635 -22.5283 -22.5283 -22.4883 -22.4709  -6.3319  -6.2468  -6.2468
    -4.6470  -4.4357  -4.4357   5.4624   5.7573   5.8058   6.5529   6.5529
     6.8596   9.3533   9.3533   9.9946

          k = 0.3750 0.3750 0.3750 (  3130 PWs)   bands (ev):

   -46.0634 -22.5303 -22.5162 -22.5162 -22.4560  -6.4376  -6.0855  -6.0855
    -4.6819  -4.6819  -4.4221   5.6695   6.0818   6.0818   6.1682   6.3996
     6.3996   9.6241   9.6241   9.8452

          k = 0.3750 0.3750-0.5000 (  3124 PWs)   bands (ev):

   -46.0631 -22.5324 -22.5160 -22.5156 -22.4619  -6.2954  -6.1097  -5.9976
    -4.7933  -4.6111  -4.5627   5.5259   5.9713   6.0813   6.0886   6.3091
     6.4254   9.6883   9.7684   9.9216

          k = 0.3750-0.5000-0.5000 (  3136 PWs)   bands (ev):

   -46.0629 -22.5269 -22.5269 -22.5152 -22.4639  -6.0604  -6.0499  -6.0499
    -4.7861  -4.7045  -4.7045   5.4218   5.8123   6.0523   6.0988   6.3208
     6.3208   9.8480   9.8480  10.0271

          k =-0.5000-0.5000-0.5000 (  3112 PWs)   bands (ev):

   -46.0626 -22.5263 -22.5263 -22.5263 -22.4609  -5.9419  -5.9419  -5.9419
    -4.8419  -4.8419  -4.8419   5.3313   5.8152   5.8152   6.2409   6.2409
     6.2409  10.0408  10.0408  10.0408

     highest occupied level (ev):    10.0408

!    total energy              =    -562.37970535 Ry

     total all-electron energy =     -8511.839925 Ry
     estimated scf accuracy    <          2.5E-13 Ry

     The total energy is the sum of the following terms:
     one-electron contribution =     -71.53616500 Ry
     hartree contribution      =      60.26750283 Ry
     xc contribution           =     -58.93325447 Ry
     ewald contribution        =    -213.16038344 Ry
     one-center paw contrib.   =    -279.01740528 Ry

     convergence has been achieved in  73 iterations

     Forces acting on atoms (cartesian axes, Ry/au):

     atom    1 type  1   force =     0.00000000    0.00000000    0.00000000
     atom    2 type  2   force =     0.00000000    0.00000000    0.00000000
     atom    3 type  3   force =     0.00000000    0.00000000    0.00000000
     atom    4 type  3   force =     0.00000000    0.00000000    0.00000000
     atom    5 type  3   force =     0.00000000    0.00000000    0.00000000

     Total force =     0.000000     Total SCF correction =     0.000000


     Computing stress (Cartesian axis) and pressure

          total   stress  (Ry/bohr**3)                   (kbar)     P=       -0.00
  -0.00000000   0.00000000   0.00000000           -0.00        0.00        0.00
   0.00000000  -0.00000000   0.00000000            0.00       -0.00        0.00
   0.00000000   0.00000000  -0.00000000            0.00        0.00       -0.00


     Writing output data file ./tmp/SrTiO3_pbesol.save/

     init_run     :      0.83s CPU      0.86s WALL (       1 calls)
     electrons    :    121.44s CPU    123.74s WALL (       1 calls)
     forces       :      0.26s CPU      0.26s WALL (       1 calls)
     stress       :      0.68s CPU      0.68s WALL (       1 calls)

     Called by init_run:
     wfcinit      :      0.42s CPU      0.43s WALL (       1 calls)
     potinit      :      0.13s CPU      0.14s WALL (       1 calls)
     hinit0       :      0.17s CPU      0.17s WALL (       1 calls)

     Called by electrons:
     c_bands      :    100.11s CPU    102.10s WALL (      73 calls)
     sum_band     :     10.50s CPU     10.70s WALL (      73 calls)
     v_of_rho     :      0.66s CPU      0.68s WALL (      74 calls)
     newd         :      3.01s CPU      3.04s WALL (      74 calls)
     PAW_pot      :      7.08s CPU      7.15s WALL (      74 calls)
     mix_rho      :      0.13s CPU      0.13s WALL (      73 calls)

     Called by c_bands:
     init_us_2    :      0.96s CPU      0.97s WALL (    5215 calls)
     cegterg      :     97.19s CPU     99.14s WALL (    2555 calls)

     Called by *egterg:
     cdiaghg      :     13.19s CPU     13.49s WALL (   18090 calls)
     h_psi        :     46.57s CPU     47.82s WALL (   18125 calls)
     s_psi        :      8.74s CPU      8.80s WALL (   18125 calls)
     g_psi        :      0.37s CPU      0.37s WALL (   15535 calls)

     Called by h_psi:
     h_psi:calbec :      8.20s CPU      8.50s WALL (   18125 calls)
     vloc_psi     :     29.50s CPU     30.36s WALL (   18125 calls)
     add_vuspsi   :      8.60s CPU      8.70s WALL (   18125 calls)

     General routines
     calbec       :     10.50s CPU     10.86s WALL (   20855 calls)
     fft          :      0.43s CPU      0.45s WALL (     985 calls)
     ffts         :      0.02s CPU      0.02s WALL (     147 calls)
     fftw         :     29.28s CPU     30.12s WALL (  426888 calls)
     interpolate  :      0.05s CPU      0.05s WALL (      74 calls)

     Parallel routines
     fft_scatt_xy :      3.79s CPU      3.90s WALL (  428020 calls)
     fft_scatt_yz :      7.00s CPU      7.21s WALL (  428020 calls)

     PWSCF        :   2m 3.61s CPU   2m 5.99s WALL


   This run was terminated on:  21:21:14  15Jul2026            

=------------------------------------------------------------------------------=
   JOB DONE.
=------------------------------------------------------------------------------=
