
     Program PWSCF v.6.7MaX starts on 21Jul2026 at 13:20:24 

     This program is part of the open-source Quantum ESPRESSO suite
     for quantum simulation of materials; please cite
         "P. Giannozzi et al., J. Phys.:Condens. Matter 21 395502 (2009);
         "P. Giannozzi et al., J. Phys.:Condens. Matter 29 465901 (2017);
          URL http://www.quantum-espresso.org", 
     in publications or presentations arising from this work. More details at
     http://www.quantum-espresso.org/quote

     Parallel version (MPI), running on     8 processors

     MPI processes distributed on     1 nodes
     R & G space division:  proc/nbgrp/npool/nimage =       8
     Reading input from scf.in

     Current dimensions of program PWSCF are:
     Max number of different atomic species (ntypx) = 10
     Max number of k-points (npk) =  40000
     Max angular momentum in pseudopotentials (lmaxx) =  3
     file Sr.pbesol-spn-kjpaw_psl.1.0.0.UPF: wavefunction(s)  4P renormalized
     file Ti.pbesol-spn-kjpaw_psl.1.0.0.UPF: wavefunction(s)  3S 3P 3D renormalized
     file O.pbesol-n-kjpaw_psl.1.0.0.UPF: wavefunction(s)  2S 2P renormalized

     Subspace diagonalization in iterative solution of the eigenvalue problem:
     one sub-group per band group will be used
     scalapack distributed-memory algorithm (size of sub-group:  2*  2 procs)

     Message from routine setup:
     using ibrav=0 with symmetry is DISCOURAGED, use correct ibrav instead

     Parallelization info
     --------------------
     sticks:   dense  smooth     PW     G-vecs:    dense   smooth      PW
     Min         257     128     38                 8853     3128     510
     Max         258     129     40                 8856     3129     511
     Sum        2063    1029    307                70841    25029    4081



     bravais-lattice index     =            0
     lattice parameter (alat)  =       7.3571  a.u.
     unit-cell volume          =     398.1212 (a.u.)^3
     number of atoms/cell      =            5
     number of atomic types    =            3
     number of electrons       =        40.00
     number of Kohn-Sham states=           20
     kinetic-energy cutoff     =      60.0000  Ry
     charge density cutoff     =     480.0000  Ry
     scf convergence threshold =      1.0E-12
     mixing beta               =       0.3000
     number of iterations used =            8  plain     mixing
     Exchange-correlation= SLA  PW   PSX  PSC
                           (   1   4  10   8   0   0   0)

     celldm(1)=   7.357122  celldm(2)=   0.000000  celldm(3)=   0.000000
     celldm(4)=   0.000000  celldm(5)=   0.000000  celldm(6)=   0.000000

     crystal axes: (cart. coord. in units of alat)
               a(1) = (   0.999950  -0.010000   0.000000 )  
               a(2) = (  -0.010000   0.999950   0.000000 )  
               a(3) = (   0.000000   0.000000   0.999950 )  

     reciprocal axes: (cart. coord. in units 2 pi/alat)
               b(1) = (  1.000150  0.010002 -0.000000 )  
               b(2) = (  0.010002  1.000150 -0.000000 )  
               b(3) = ( -0.000000 -0.000000  1.000050 )  


     PseudoPot. # 1 for Sr read from file:
     ./pseudo/Sr.pbesol-spn-kjpaw_psl.1.0.0.UPF
     MD5 check sum: 5f6d651ace59fc2f5ab95f6a3abc31cb
     Pseudo is Projector augmented-wave + core cor, Zval = 10.0
     Generated using &quot;atomic&quot; code by A. Dal Corso  v.6.2.2
     Shape of augmentation charge: PSQ
     Using radial grid of 1221 points,  6 beta functions with: 
                l(1) =   0
                l(2) =   0
                l(3) =   1
                l(4) =   1
                l(5) =   2
                l(6) =   2
     Q(r) pseudized with 0 coefficients 


     PseudoPot. # 2 for Ti read from file:
     ./pseudo/Ti.pbesol-spn-kjpaw_psl.1.0.0.UPF
     MD5 check sum: 37a32a5821746b2d50d64995a8e5b789
     Pseudo is Projector augmented-wave + core cor, Zval = 12.0
     Generated using &quot;atomic&quot; code by A. Dal Corso  v.6.2.2
     Shape of augmentation charge: PSQ
     Using radial grid of 1177 points,  6 beta functions with: 
                l(1) =   0
                l(2) =   0
                l(3) =   1
                l(4) =   1
                l(5) =   2
                l(6) =   2
     Q(r) pseudized with 0 coefficients 


     PseudoPot. # 3 for O  read from file:
     ./pseudo/O.pbesol-n-kjpaw_psl.1.0.0.UPF
     MD5 check sum: cb766521a97cf798d01896eaf7ac9a0a
     Pseudo is Projector augmented-wave + core cor, Zval =  6.0
     Generated using &quot;atomic&quot; code by A. Dal Corso  v.6.3
     Shape of augmentation charge: PSQ
     Using radial grid of 1095 points,  4 beta functions with: 
                l(1) =   0
                l(2) =   0
                l(3) =   1
                l(4) =   1
     Q(r) pseudized with 0 coefficients 


     atomic species   valence    mass     pseudopotential
        Sr            10.00    87.62000     Sr( 1.00)
        Ti            12.00    47.86700     Ti( 1.00)
        O              6.00    15.99900     O ( 1.00)

      8 Sym. Ops., with inversion, found



   Cartesian axes

     site n.     atom                  positions (alat units)
         1           Sr  tau(   1) = (   0.0000000   0.0000000   0.0000000  )
         2           Ti  tau(   2) = (   0.4949753   0.4949753   0.4999750  )
         3           O   tau(   3) = (   0.4949753   0.4949753   0.0000000  )
         4           O   tau(   4) = (   0.4999750  -0.0049998   0.4999750  )
         5           O   tau(   5) = (  -0.0049998   0.4999750   0.4999750  )

     number of k points=   105

     Number of k-points >= 100: set verbosity='high' to print them.

     Dense  grid:    70841 G-vectors     FFT dimensions: (  54,  54,  54)

     Smooth grid:    25029 G-vectors     FFT dimensions: (  40,  40,  40)

     Estimated max dynamical RAM per process >      50.99 MB

     Estimated total dynamical RAM >     407.90 MB

     Check: negative core charge=   -0.000002

     Initial potential from superposition of free atoms

     starting charge   39.99155, renormalised to   40.00000
     Starting wfcs are   30 randomized atomic wfcs
     Checking if some PAW data can be deallocated... 

     total cpu time spent up to now is        2.4 secs

     Self-consistent Calculation

     iteration #  1     ecut=    60.00 Ry     beta= 0.30
     Davidson diagonalization with overlap
     ethr =  1.00E-02,  avg # of iterations =  1.0

     total cpu time spent up to now is        4.8 secs

     total energy              =    -561.77864578 Ry
     estimated scf accuracy    <       2.02804081 Ry

     iteration #  2     ecut=    60.00 Ry     beta= 0.30
     Davidson diagonalization with overlap
     ethr =  5.07E-03,  avg # of iterations =  2.1

     total cpu time spent up to now is        7.8 secs

     total energy              =    -562.09963608 Ry
     estimated scf accuracy    <       0.20513957 Ry

     iteration #  3     ecut=    60.00 Ry     beta= 0.30
     Davidson diagonalization with overlap
     c_bands:  1 eigenvalues not converged
     c_bands:  2 eigenvalues not converged
     c_bands:  3 eigenvalues not converged
     ethr =  5.13E-04,  avg # of iterations = 13.7

     total cpu time spent up to now is       16.0 secs

     total energy              =    -562.35095247 Ry
     estimated scf accuracy    <       1.87879890 Ry

     iteration #  4     ecut=    60.00 Ry     beta= 0.30
     Davidson diagonalization with overlap
     ethr =  5.13E-04,  avg # of iterations =  2.3

     total cpu time spent up to now is       18.6 secs

     total energy              =    -561.53330459 Ry
     estimated scf accuracy    <       1.24756541 Ry

     iteration #  5     ecut=    60.00 Ry     beta= 0.30
     Davidson diagonalization with overlap
     ethr =  5.13E-04,  avg # of iterations =  9.4

     total cpu time spent up to now is       25.1 secs

     total energy              =    -562.57223216 Ry
     estimated scf accuracy    <       1.79665959 Ry

     iteration #  6     ecut=    60.00 Ry     beta= 0.30
     Davidson diagonalization with overlap
     ethr =  5.13E-04,  avg # of iterations =  2.0

     total cpu time spent up to now is       28.0 secs

     total energy              =    -562.34531012 Ry
     estimated scf accuracy    <       1.13505633 Ry

     iteration #  7     ecut=    60.00 Ry     beta= 0.30
     Davidson diagonalization with overlap
     ethr =  5.13E-04,  avg # of iterations =  5.5

     total cpu time spent up to now is       31.8 secs

     total energy              =    -562.41697144 Ry
     estimated scf accuracy    <       0.38731399 Ry

     iteration #  8     ecut=    60.00 Ry     beta= 0.30
     Davidson diagonalization with overlap
     ethr =  5.13E-04,  avg # of iterations =  1.9

     total cpu time spent up to now is       34.5 secs

     total energy              =    -562.31085090 Ry
     estimated scf accuracy    <       0.33841503 Ry

     iteration #  9     ecut=    60.00 Ry     beta= 0.30
     Davidson diagonalization with overlap
     ethr =  5.13E-04,  avg # of iterations =  3.3

     total cpu time spent up to now is       37.5 secs

     total energy              =    -562.31409454 Ry
     estimated scf accuracy    <       0.11090285 Ry

     iteration # 10     ecut=    60.00 Ry     beta= 0.30
     Davidson diagonalization with overlap
     ethr =  2.77E-04,  avg # of iterations =  7.2

     total cpu time spent up to now is       42.1 secs

     total energy              =    -562.37512081 Ry
     estimated scf accuracy    <       0.05754218 Ry

     iteration # 11     ecut=    60.00 Ry     beta= 0.30
     Davidson diagonalization with overlap
     ethr =  1.44E-04,  avg # of iterations =  2.1

     total cpu time spent up to now is       44.8 secs

     total energy              =    -562.39984741 Ry
     estimated scf accuracy    <       0.02939240 Ry

     iteration # 12     ecut=    60.00 Ry     beta= 0.30
     Davidson diagonalization with overlap
     ethr =  7.35E-05,  avg # of iterations =  8.7

     total cpu time spent up to now is       51.2 secs

     total energy              =    -562.32408593 Ry
     estimated scf accuracy    <       0.50857782 Ry

     iteration # 13     ecut=    60.00 Ry     beta= 0.30
     Davidson diagonalization with overlap
     ethr =  7.35E-05,  avg # of iterations =  7.6

     total cpu time spent up to now is       57.1 secs

     total energy              =    -562.37356969 Ry
     estimated scf accuracy    <       0.04690743 Ry

     iteration # 14     ecut=    60.00 Ry     beta= 0.30
     Davidson diagonalization with overlap
     ethr =  7.35E-05,  avg # of iterations =  2.0

     total cpu time spent up to now is       59.8 secs

     total energy              =    -562.38002383 Ry
     estimated scf accuracy    <       0.03366981 Ry

     iteration # 15     ecut=    60.00 Ry     beta= 0.30
     Davidson diagonalization with overlap
     ethr =  7.35E-05,  avg # of iterations =  1.3

     total cpu time spent up to now is       62.3 secs

     total energy              =    -562.37764379 Ry
     estimated scf accuracy    <       0.03911243 Ry

     iteration # 16     ecut=    60.00 Ry     beta= 0.30
     Davidson diagonalization with overlap
     ethr =  7.35E-05,  avg # of iterations =  1.5

     total cpu time spent up to now is       64.8 secs

     total energy              =    -562.37994895 Ry
     estimated scf accuracy    <       0.03124330 Ry

     iteration # 17     ecut=    60.00 Ry     beta= 0.30
     Davidson diagonalization with overlap
     ethr =  7.35E-05,  avg # of iterations =  1.3

     total cpu time spent up to now is       67.2 secs

     total energy              =    -562.35106606 Ry
     estimated scf accuracy    <       0.03297906 Ry

     iteration # 18     ecut=    60.00 Ry     beta= 0.30
     Davidson diagonalization with overlap
     c_bands:  1 eigenvalues not converged
     ethr =  7.35E-05,  avg # of iterations = 12.2

     total cpu time spent up to now is       74.5 secs

     total energy              =    -562.32611323 Ry
     estimated scf accuracy    <       0.55667423 Ry

     iteration # 19     ecut=    60.00 Ry     beta= 0.30
     Davidson diagonalization with overlap
     ethr =  7.35E-05,  avg # of iterations =  8.4

     total cpu time spent up to now is       80.3 secs

     total energy              =    -562.36247531 Ry
     estimated scf accuracy    <       0.04174169 Ry

     iteration # 20     ecut=    60.00 Ry     beta= 0.30
     Davidson diagonalization with overlap
     ethr =  7.35E-05,  avg # of iterations =  6.2

     total cpu time spent up to now is       84.3 secs

     total energy              =    -562.37709706 Ry
     estimated scf accuracy    <       0.00374678 Ry

     iteration # 21     ecut=    60.00 Ry     beta= 0.30
     Davidson diagonalization with overlap
     ethr =  9.37E-06,  avg # of iterations =  6.7

     total cpu time spent up to now is       88.5 secs

     total energy              =    -562.37814968 Ry
     estimated scf accuracy    <       0.00451203 Ry

     iteration # 22     ecut=    60.00 Ry     beta= 0.30
     Davidson diagonalization with overlap
     ethr =  9.37E-06,  avg # of iterations =  4.8

     total cpu time spent up to now is       91.9 secs

     total energy              =    -562.37927168 Ry
     estimated scf accuracy    <       0.00119676 Ry

     iteration # 23     ecut=    60.00 Ry     beta= 0.30
     Davidson diagonalization with overlap
     ethr =  2.99E-06,  avg # of iterations =  7.9

     total cpu time spent up to now is       97.0 secs

     total energy              =    -562.38479443 Ry
     estimated scf accuracy    <       0.00466844 Ry

     iteration # 24     ecut=    60.00 Ry     beta= 0.30
     Davidson diagonalization with overlap
     ethr =  2.99E-06,  avg # of iterations = 11.1

     total cpu time spent up to now is      104.0 secs

     total energy              =    -562.37222484 Ry
     estimated scf accuracy    <       0.04395445 Ry

     iteration # 25     ecut=    60.00 Ry     beta= 0.30
     Davidson diagonalization with overlap
     ethr =  2.99E-06,  avg # of iterations = 11.9

     total cpu time spent up to now is      111.9 secs

     total energy              =    -562.37912461 Ry
     estimated scf accuracy    <       0.00029742 Ry

     iteration # 26     ecut=    60.00 Ry     beta= 0.30
     Davidson diagonalization with overlap
     ethr =  7.44E-07,  avg # of iterations =  5.9

     total cpu time spent up to now is      115.9 secs

     total energy              =    -562.37948123 Ry
     estimated scf accuracy    <       0.00058696 Ry

     iteration # 27     ecut=    60.00 Ry     beta= 0.30
     Davidson diagonalization with overlap
     ethr =  7.44E-07,  avg # of iterations =  7.5

     total cpu time spent up to now is      121.0 secs

     total energy              =    -562.37869170 Ry
     estimated scf accuracy    <       0.00258358 Ry

     iteration # 28     ecut=    60.00 Ry     beta= 0.30
     Davidson diagonalization with overlap
     ethr =  7.44E-07,  avg # of iterations =  7.9

     total cpu time spent up to now is      126.7 secs

     total energy              =    -562.37904434 Ry
     estimated scf accuracy    <       0.00004489 Ry

     iteration # 29     ecut=    60.00 Ry     beta= 0.30
     Davidson diagonalization with overlap
     ethr =  1.12E-07,  avg # of iterations =  8.0

     total cpu time spent up to now is      131.5 secs

     total energy              =    -562.37908388 Ry
     estimated scf accuracy    <       0.00000543 Ry

     iteration # 30     ecut=    60.00 Ry     beta= 0.30
     Davidson diagonalization with overlap
     ethr =  1.36E-08,  avg # of iterations =  7.8

     total cpu time spent up to now is      136.7 secs

     total energy              =    -562.37908923 Ry
     estimated scf accuracy    <       0.00000179 Ry

     iteration # 31     ecut=    60.00 Ry     beta= 0.30
     Davidson diagonalization with overlap
     ethr =  4.47E-09,  avg # of iterations =  8.1

     total cpu time spent up to now is      141.8 secs

     total energy              =    -562.37908967 Ry
     estimated scf accuracy    <       0.00001129 Ry

     iteration # 32     ecut=    60.00 Ry     beta= 0.30
     Davidson diagonalization with overlap
     ethr =  4.47E-09,  avg # of iterations =  1.2

     total cpu time spent up to now is      144.2 secs

     total energy              =    -562.37908683 Ry
     estimated scf accuracy    <       0.00000968 Ry

     iteration # 33     ecut=    60.00 Ry     beta= 0.30
     Davidson diagonalization with overlap
     ethr =  4.47E-09,  avg # of iterations =  7.5

     total cpu time spent up to now is      149.1 secs

     total energy              =    -562.37908797 Ry
     estimated scf accuracy    <       0.00000062 Ry

     iteration # 34     ecut=    60.00 Ry     beta= 0.30
     Davidson diagonalization with overlap
     ethr =  1.56E-09,  avg # of iterations =  4.2

     total cpu time spent up to now is      152.3 secs

     total energy              =    -562.37908800 Ry
     estimated scf accuracy    <       0.00000032 Ry

     iteration # 35     ecut=    60.00 Ry     beta= 0.30
     Davidson diagonalization with overlap
     ethr =  7.93E-10,  avg # of iterations =  4.1

     total cpu time spent up to now is      155.7 secs

     total energy              =    -562.37908809 Ry
     estimated scf accuracy    <       0.00000005 Ry

     iteration # 36     ecut=    60.00 Ry     beta= 0.30
     Davidson diagonalization with overlap
     ethr =  1.21E-10,  avg # of iterations =  7.8

     total cpu time spent up to now is      160.4 secs

     total energy              =    -562.37908812 Ry
     estimated scf accuracy    <          3.3E-10 Ry

     iteration # 37     ecut=    60.00 Ry     beta= 0.30
     Davidson diagonalization with overlap
     c_bands:  3 eigenvalues not converged
     c_bands:  1 eigenvalues not converged
     c_bands:  2 eigenvalues not converged
     c_bands:  1 eigenvalues not converged
     c_bands:  5 eigenvalues not converged
     c_bands:  1 eigenvalues not converged
     c_bands:  2 eigenvalues not converged
     c_bands:  2 eigenvalues not converged
     c_bands:  4 eigenvalues not converged
     c_bands:  3 eigenvalues not converged
     c_bands:  3 eigenvalues not converged
     c_bands:  3 eigenvalues not converged
     c_bands:  5 eigenvalues not converged
     c_bands:  1 eigenvalues not converged
     c_bands:  3 eigenvalues not converged
     ethr =  8.20E-13,  avg # of iterations = 16.7

     total cpu time spent up to now is      170.2 secs

     total energy              =    -562.37908813 Ry
     estimated scf accuracy    <       0.00000001 Ry

     iteration # 38     ecut=    60.00 Ry     beta= 0.30
     Davidson diagonalization with overlap
     c_bands:  1 eigenvalues not converged
     c_bands:  5 eigenvalues not converged
     ethr =  8.20E-13,  avg # of iterations = 13.9

     total cpu time spent up to now is      179.3 secs

     total energy              =    -562.37908813 Ry
     estimated scf accuracy    <          1.1E-09 Ry

     iteration # 39     ecut=    60.00 Ry     beta= 0.30
     Davidson diagonalization with overlap
     c_bands:  1 eigenvalues not converged
     c_bands:  1 eigenvalues not converged
     c_bands:  1 eigenvalues not converged
     c_bands:  1 eigenvalues not converged
     c_bands:  1 eigenvalues not converged
     c_bands:  2 eigenvalues not converged
     c_bands:  2 eigenvalues not converged
     c_bands:  1 eigenvalues not converged
     c_bands:  3 eigenvalues not converged
     c_bands:  1 eigenvalues not converged
     c_bands:  2 eigenvalues not converged
     c_bands:  2 eigenvalues not converged
     c_bands:  1 eigenvalues not converged
     c_bands:  4 eigenvalues not converged
     c_bands:  3 eigenvalues not converged
     c_bands:  1 eigenvalues not converged
     c_bands:  1 eigenvalues not converged
     c_bands:  2 eigenvalues not converged
     c_bands:  2 eigenvalues not converged
     c_bands:  1 eigenvalues not converged
     c_bands:  5 eigenvalues not converged
     c_bands:  2 eigenvalues not converged
     c_bands:  3 eigenvalues not converged
     c_bands:  1 eigenvalues not converged
     c_bands:  1 eigenvalues not converged
     c_bands:  2 eigenvalues not converged
     ethr =  8.20E-13,  avg # of iterations = 17.9

     total cpu time spent up to now is      191.4 secs

     total energy              =    -562.37908814 Ry
     estimated scf accuracy    <       0.00000009 Ry

     iteration # 40     ecut=    60.00 Ry     beta= 0.30
     Davidson diagonalization with overlap
     ethr =  8.20E-13,  avg # of iterations =  8.9

     total cpu time spent up to now is      197.4 secs

     total energy              =    -562.37908812 Ry
     estimated scf accuracy    <       0.00000007 Ry

     iteration # 41     ecut=    60.00 Ry     beta= 0.30
     Davidson diagonalization with overlap
     c_bands:  1 eigenvalues not converged
     c_bands:  2 eigenvalues not converged
     c_bands:  1 eigenvalues not converged
     c_bands:  1 eigenvalues not converged
     c_bands:  1 eigenvalues not converged
     c_bands:  1 eigenvalues not converged
     c_bands:  1 eigenvalues not converged
     ethr =  8.20E-13,  avg # of iterations = 14.9

     total cpu time spent up to now is      207.3 secs

     total energy              =    -562.37908813 Ry
     estimated scf accuracy    <          5.7E-09 Ry

     iteration # 42     ecut=    60.00 Ry     beta= 0.30
     Davidson diagonalization with overlap
     ethr =  8.20E-13,  avg # of iterations =  7.5

     total cpu time spent up to now is      211.9 secs

     total energy              =    -562.37908813 Ry
     estimated scf accuracy    <          2.2E-09 Ry

     iteration # 43     ecut=    60.00 Ry     beta= 0.30
     Davidson diagonalization with overlap
     ethr =  8.20E-13,  avg # of iterations =  9.1

     total cpu time spent up to now is      217.9 secs

     total energy              =    -562.37908813 Ry
     estimated scf accuracy    <          2.8E-11 Ry

     iteration # 44     ecut=    60.00 Ry     beta= 0.30
     Davidson diagonalization with overlap
     ethr =  1.00E-13,  avg # of iterations = 12.1

     total cpu time spent up to now is      225.3 secs

     total energy              =    -562.37908813 Ry
     estimated scf accuracy    <          9.9E-10 Ry

     iteration # 45     ecut=    60.00 Ry     beta= 0.30
     Davidson diagonalization with overlap
     ethr =  1.00E-13,  avg # of iterations =  9.3

     total cpu time spent up to now is      231.6 secs

     total energy              =    -562.37908813 Ry
     estimated scf accuracy    <          6.2E-11 Ry

     iteration # 46     ecut=    60.00 Ry     beta= 0.30
     Davidson diagonalization with overlap
     ethr =  1.00E-13,  avg # of iterations =  8.2

     total cpu time spent up to now is      237.0 secs

     total energy              =    -562.37908813 Ry
     estimated scf accuracy    <          3.7E-11 Ry

     iteration # 47     ecut=    60.00 Ry     beta= 0.30
     Davidson diagonalization with overlap
     ethr =  1.00E-13,  avg # of iterations =  1.2

     total cpu time spent up to now is      239.4 secs

     total energy              =    -562.37908813 Ry
     estimated scf accuracy    <          1.7E-11 Ry

     iteration # 48     ecut=    60.00 Ry     beta= 0.30
     Davidson diagonalization with overlap
     ethr =  1.00E-13,  avg # of iterations =  1.0

     total cpu time spent up to now is      241.8 secs

     total energy              =    -562.37908813 Ry
     estimated scf accuracy    <          1.8E-11 Ry

     iteration # 49     ecut=    60.00 Ry     beta= 0.30
     Davidson diagonalization with overlap
     ethr =  1.00E-13,  avg # of iterations =  1.0

     total cpu time spent up to now is      244.1 secs

     total energy              =    -562.37908813 Ry
     estimated scf accuracy    <          1.7E-11 Ry

     iteration # 50     ecut=    60.00 Ry     beta= 0.30
     Davidson diagonalization with overlap
     ethr =  1.00E-13,  avg # of iterations =  1.1

     total cpu time spent up to now is      246.5 secs

     total energy              =    -562.37908813 Ry
     estimated scf accuracy    <          1.2E-11 Ry

     iteration # 51     ecut=    60.00 Ry     beta= 0.30
     Davidson diagonalization with overlap
     ethr =  1.00E-13,  avg # of iterations =  1.0

     total cpu time spent up to now is      248.8 secs

     total energy              =    -562.37908813 Ry
     estimated scf accuracy    <          9.3E-12 Ry

     iteration # 52     ecut=    60.00 Ry     beta= 0.30
     Davidson diagonalization with overlap
     ethr =  1.00E-13,  avg # of iterations =  1.0

     total cpu time spent up to now is      251.2 secs

     total energy              =    -562.37908813 Ry
     estimated scf accuracy    <          9.8E-12 Ry

     iteration # 53     ecut=    60.00 Ry     beta= 0.30
     Davidson diagonalization with overlap
     ethr =  1.00E-13,  avg # of iterations =  1.1

     total cpu time spent up to now is      253.5 secs

     total energy              =    -562.37908813 Ry
     estimated scf accuracy    <          5.4E-12 Ry

     iteration # 54     ecut=    60.00 Ry     beta= 0.30
     Davidson diagonalization with overlap
     ethr =  1.00E-13,  avg # of iterations =  1.0

     total cpu time spent up to now is      255.9 secs

     total energy              =    -562.37908813 Ry
     estimated scf accuracy    <          8.5E-12 Ry

     iteration # 55     ecut=    60.00 Ry     beta= 0.30
     Davidson diagonalization with overlap
     ethr =  1.00E-13,  avg # of iterations =  1.6

     total cpu time spent up to now is      258.4 secs

     End of self-consistent calculation

     Number of k-points >= 100: set verbosity='high' to print the bands.

     highest occupied level (ev):    10.0562

!    total energy              =    -562.37908813 Ry

     total all-electron energy =     -8511.839308 Ry
     estimated scf accuracy    <          5.7E-13 Ry

     The total energy is the sum of the following terms:
     one-electron contribution =     -71.52544820 Ry
     hartree contribution      =      60.26491126 Ry
     xc contribution           =     -58.93367300 Ry
     ewald contribution        =    -213.16745832 Ry
     one-center paw contrib.   =    -279.01741988 Ry

     convergence has been achieved in  55 iterations

     Forces acting on atoms (cartesian axes, Ry/au):

     atom    1 type  1   force =     0.00000000    0.00000000    0.00000000
     atom    2 type  2   force =     0.00000000    0.00000000    0.00000000
     atom    3 type  3   force =     0.00000000    0.00000000    0.00000000
     atom    4 type  3   force =     0.00000000    0.00000000    0.00000000
     atom    5 type  3   force =     0.00000000    0.00000000   -0.00000000

     Total force =     0.000000     Total SCF correction =     0.000000


     Computing stress (Cartesian axis) and pressure

          total   stress  (Ry/bohr**3)                   (kbar)     P=        0.32
   0.00000252   0.00015460   0.00000000            0.37       22.74        0.00
   0.00015460   0.00000252   0.00000000           22.74        0.37        0.00
   0.00000000   0.00000000   0.00000157            0.00        0.00        0.23


     Writing output data file ./tmp/SrTiO3_pbesol_shear_xy_m010.save/

     init_run     :      2.00s CPU      2.04s WALL (       1 calls)
     electrons    :    251.13s CPU    255.94s WALL (       1 calls)
     forces       :      0.80s CPU      0.81s WALL (       1 calls)
     stress       :      1.81s CPU      1.81s WALL (       1 calls)

     Called by init_run:
     wfcinit      :      1.22s CPU      1.24s WALL (       1 calls)
     potinit      :      0.25s CPU      0.26s WALL (       1 calls)
     hinit0       :      0.41s CPU      0.41s WALL (       1 calls)

     Called by electrons:
     c_bands      :    223.90s CPU    228.21s WALL (      55 calls)
     sum_band     :     18.62s CPU     19.04s WALL (      55 calls)
     v_of_rho     :      0.49s CPU      0.51s WALL (      56 calls)
     newd         :      2.86s CPU      2.88s WALL (      56 calls)
     PAW_pot      :      5.27s CPU      5.31s WALL (      56 calls)
     mix_rho      :      0.09s CPU      0.10s WALL (      55 calls)

     Called by c_bands:
     init_us_2    :      2.11s CPU      2.14s WALL (   11865 calls)
     cegterg      :    217.52s CPU    221.76s WALL (    5781 calls)

     Called by *egterg:
     cdiaghg      :     29.66s CPU     30.32s WALL (   41538 calls)
     h_psi        :    104.40s CPU    107.17s WALL (   41643 calls)
     s_psi        :     19.73s CPU     19.87s WALL (   41643 calls)
     g_psi        :      0.82s CPU      0.83s WALL (   35757 calls)

     Called by h_psi:
     h_psi:calbec :     18.50s CPU     19.13s WALL (   41643 calls)
     vloc_psi     :     65.91s CPU     67.82s WALL (   41643 calls)
     add_vuspsi   :     19.41s CPU     19.64s WALL (   41643 calls)

     General routines
     calbec       :     23.73s CPU     24.50s WALL (   47943 calls)
     fft          :      0.32s CPU      0.34s WALL (     751 calls)
     ffts         :      0.02s CPU      0.02s WALL (     111 calls)
     fftw         :     65.27s CPU     67.15s WALL (  979172 calls)
     interpolate  :      0.04s CPU      0.04s WALL (      56 calls)

     Parallel routines
     fft_scatt_xy :      8.39s CPU      8.64s WALL (  980034 calls)
     fft_scatt_yz :     16.08s CPU     16.57s WALL (  980034 calls)

     PWSCF        :   4m16.21s CPU   4m21.16s WALL


   This run was terminated on:  13:24:45  21Jul2026            

=------------------------------------------------------------------------------=
   JOB DONE.
=------------------------------------------------------------------------------=
