
     Program PWSCF v.6.7MaX starts on 16Jul2026 at 12:17:28 

     This program is part of the open-source Quantum ESPRESSO suite
     for quantum simulation of materials; please cite
         "P. Giannozzi et al., J. Phys.:Condens. Matter 21 395502 (2009);
         "P. Giannozzi et al., J. Phys.:Condens. Matter 29 465901 (2017);
          URL http://www.quantum-espresso.org", 
     in publications or presentations arising from this work. More details at
     http://www.quantum-espresso.org/quote

     Parallel version (MPI), running on     8 processors

     MPI processes distributed on     1 nodes
     R & G space division:  proc/nbgrp/npool/nimage =       8
     Reading input from scf.in

     Current dimensions of program PWSCF are:
     Max number of different atomic species (ntypx) = 10
     Max number of k-points (npk) =  40000
     Max angular momentum in pseudopotentials (lmaxx) =  3
     file Sr.pbesol-spn-kjpaw_psl.1.0.0.UPF: wavefunction(s)  4P renormalized
     file Ti.pbesol-spn-kjpaw_psl.1.0.0.UPF: wavefunction(s)  3S 3P 3D renormalized
     file O.pbesol-n-kjpaw_psl.1.0.0.UPF: wavefunction(s)  2S 2P renormalized

     Subspace diagonalization in iterative solution of the eigenvalue problem:
     one sub-group per band group will be used
     scalapack distributed-memory algorithm (size of sub-group:  2*  2 procs)

     Message from routine setup:
     using ibrav=0 with symmetry is DISCOURAGED, use correct ibrav instead

     Parallelization info
     --------------------
     sticks:   dense  smooth     PW     G-vecs:    dense   smooth      PW
     Min         258     129     37                 8844     3131     508
     Max         259     131     39                 8847     3132     510
     Sum        2065    1041    303                70755    25053    4073



     bravais-lattice index     =            0
     lattice parameter (alat)  =       7.3568  a.u.
     unit-cell volume          =     398.1511 (a.u.)^3
     number of atoms/cell      =            5
     number of atomic types    =            3
     number of electrons       =        40.00
     number of Kohn-Sham states=           20
     kinetic-energy cutoff     =      60.0000  Ry
     charge density cutoff     =     480.0000  Ry
     scf convergence threshold =      1.0E-12
     mixing beta               =       0.3000
     number of iterations used =            8  plain     mixing
     Exchange-correlation= SLA  PW   PSX  PSC
                           (   1   4  10   8   0   0   0)

     celldm(1)=   7.356846  celldm(2)=   0.000000  celldm(3)=   0.000000
     celldm(4)=   0.000000  celldm(5)=   0.000000  celldm(6)=   0.000000

     crystal axes: (cart. coord. in units of alat)
               a(1) = (   0.999988   0.005000   0.000000 )  
               a(2) = (   0.005000   0.999988   0.000000 )  
               a(3) = (   0.000000   0.000000   0.999988 )  

     reciprocal axes: (cart. coord. in units 2 pi/alat)
               b(1) = (  1.000038 -0.005000  0.000000 )  
               b(2) = ( -0.005000  1.000038  0.000000 )  
               b(3) = (  0.000000  0.000000  1.000012 )  


     PseudoPot. # 1 for Sr read from file:
     ./pseudo/Sr.pbesol-spn-kjpaw_psl.1.0.0.UPF
     MD5 check sum: 5f6d651ace59fc2f5ab95f6a3abc31cb
     Pseudo is Projector augmented-wave + core cor, Zval = 10.0
     Generated using &quot;atomic&quot; code by A. Dal Corso  v.6.2.2
     Shape of augmentation charge: PSQ
     Using radial grid of 1221 points,  6 beta functions with: 
                l(1) =   0
                l(2) =   0
                l(3) =   1
                l(4) =   1
                l(5) =   2
                l(6) =   2
     Q(r) pseudized with 0 coefficients 


     PseudoPot. # 2 for Ti read from file:
     ./pseudo/Ti.pbesol-spn-kjpaw_psl.1.0.0.UPF
     MD5 check sum: 37a32a5821746b2d50d64995a8e5b789
     Pseudo is Projector augmented-wave + core cor, Zval = 12.0
     Generated using &quot;atomic&quot; code by A. Dal Corso  v.6.2.2
     Shape of augmentation charge: PSQ
     Using radial grid of 1177 points,  6 beta functions with: 
                l(1) =   0
                l(2) =   0
                l(3) =   1
                l(4) =   1
                l(5) =   2
                l(6) =   2
     Q(r) pseudized with 0 coefficients 


     PseudoPot. # 3 for O  read from file:
     ./pseudo/O.pbesol-n-kjpaw_psl.1.0.0.UPF
     MD5 check sum: cb766521a97cf798d01896eaf7ac9a0a
     Pseudo is Projector augmented-wave + core cor, Zval =  6.0
     Generated using &quot;atomic&quot; code by A. Dal Corso  v.6.3
     Shape of augmentation charge: PSQ
     Using radial grid of 1095 points,  4 beta functions with: 
                l(1) =   0
                l(2) =   0
                l(3) =   1
                l(4) =   1
     Q(r) pseudized with 0 coefficients 


     atomic species   valence    mass     pseudopotential
        Sr            10.00    87.62000     Sr( 1.00)
        Ti            12.00    47.86700     Ti( 1.00)
        O              6.00    15.99900     O ( 1.00)

      8 Sym. Ops., with inversion, found



   Cartesian axes

     site n.     atom                  positions (alat units)
         1           Sr  tau(   1) = (   0.0000000   0.0000000   0.0000000  )
         2           Ti  tau(   2) = (   0.5024937   0.5024937   0.4999938  )
         3           O   tau(   3) = (   0.5024937   0.5024937   0.0000000  )
         4           O   tau(   4) = (   0.4999938   0.0025000   0.4999938  )
         5           O   tau(   5) = (   0.0025000   0.4999938   0.4999938  )

     number of k points=   105

     Number of k-points >= 100: set verbosity='high' to print them.

     Dense  grid:    70755 G-vectors     FFT dimensions: (  54,  54,  54)

     Smooth grid:    25053 G-vectors     FFT dimensions: (  40,  40,  40)

     Estimated max dynamical RAM per process >      50.96 MB

     Estimated total dynamical RAM >     407.65 MB

     Check: negative core charge=   -0.000002

     Initial potential from superposition of free atoms

     starting charge   39.99155, renormalised to   40.00000
     Starting wfcs are   30 randomized atomic wfcs
     Checking if some PAW data can be deallocated... 

     total cpu time spent up to now is        2.5 secs

     Self-consistent Calculation

     iteration #  1     ecut=    60.00 Ry     beta= 0.30
     Davidson diagonalization with overlap
     ethr =  1.00E-02,  avg # of iterations =  1.0

     total cpu time spent up to now is        4.9 secs

     total energy              =    -561.77868290 Ry
     estimated scf accuracy    <       2.02846745 Ry

     iteration #  2     ecut=    60.00 Ry     beta= 0.30
     Davidson diagonalization with overlap
     ethr =  5.07E-03,  avg # of iterations =  2.1

     total cpu time spent up to now is        8.0 secs

     total energy              =    -562.09975803 Ry
     estimated scf accuracy    <       0.20543834 Ry

     iteration #  3     ecut=    60.00 Ry     beta= 0.30
     Davidson diagonalization with overlap
     c_bands:  3 eigenvalues not converged
     ethr =  5.14E-04,  avg # of iterations = 13.1

     total cpu time spent up to now is       16.3 secs

     total energy              =    -562.35088961 Ry
     estimated scf accuracy    <       1.83603549 Ry

     iteration #  4     ecut=    60.00 Ry     beta= 0.30
     Davidson diagonalization with overlap
     ethr =  5.14E-04,  avg # of iterations =  2.0

     total cpu time spent up to now is       19.0 secs

     total energy              =    -561.53430834 Ry
     estimated scf accuracy    <       1.24372164 Ry

     iteration #  5     ecut=    60.00 Ry     beta= 0.30
     Davidson diagonalization with overlap
     ethr =  5.14E-04,  avg # of iterations =  9.4

     total cpu time spent up to now is       25.8 secs

     total energy              =    -562.58073202 Ry
     estimated scf accuracy    <       1.77478920 Ry

     iteration #  6     ecut=    60.00 Ry     beta= 0.30
     Davidson diagonalization with overlap
     ethr =  5.14E-04,  avg # of iterations =  2.0

     total cpu time spent up to now is       28.8 secs

     total energy              =    -562.33298752 Ry
     estimated scf accuracy    <       1.13083565 Ry

     iteration #  7     ecut=    60.00 Ry     beta= 0.30
     Davidson diagonalization with overlap
     ethr =  5.14E-04,  avg # of iterations =  5.7

     total cpu time spent up to now is       32.8 secs

     total energy              =    -562.40900930 Ry
     estimated scf accuracy    <       0.34609115 Ry

     iteration #  8     ecut=    60.00 Ry     beta= 0.30
     Davidson diagonalization with overlap
     ethr =  5.14E-04,  avg # of iterations =  1.9

     total cpu time spent up to now is       35.6 secs

     total energy              =    -562.34954224 Ry
     estimated scf accuracy    <       0.30123602 Ry

     iteration #  9     ecut=    60.00 Ry     beta= 0.30
     Davidson diagonalization with overlap
     ethr =  5.14E-04,  avg # of iterations =  2.0

     total cpu time spent up to now is       38.4 secs

     total energy              =    -562.27458390 Ry
     estimated scf accuracy    <       0.16570280 Ry

     iteration # 10     ecut=    60.00 Ry     beta= 0.30
     Davidson diagonalization with overlap
     ethr =  4.14E-04,  avg # of iterations =  8.0

     total cpu time spent up to now is       43.7 secs

     total energy              =    -562.36693994 Ry
     estimated scf accuracy    <       0.13495135 Ry

     iteration # 11     ecut=    60.00 Ry     beta= 0.30
     Davidson diagonalization with overlap
     ethr =  3.37E-04,  avg # of iterations =  1.3

     total cpu time spent up to now is       46.2 secs

     total energy              =    -562.38539964 Ry
     estimated scf accuracy    <       0.05979668 Ry

     iteration # 12     ecut=    60.00 Ry     beta= 0.30
     Davidson diagonalization with overlap
     ethr =  1.49E-04,  avg # of iterations =  1.5

     total cpu time spent up to now is       48.8 secs

     total energy              =    -562.37330385 Ry
     estimated scf accuracy    <       0.08217351 Ry

     iteration # 13     ecut=    60.00 Ry     beta= 0.30
     Davidson diagonalization with overlap
     ethr =  1.49E-04,  avg # of iterations =  1.7

     total cpu time spent up to now is       51.4 secs

     total energy              =    -562.39079445 Ry
     estimated scf accuracy    <       0.05333571 Ry

     iteration # 14     ecut=    60.00 Ry     beta= 0.30
     Davidson diagonalization with overlap
     ethr =  1.33E-04,  avg # of iterations =  1.3

     total cpu time spent up to now is       53.9 secs

     total energy              =    -562.35090984 Ry
     estimated scf accuracy    <       0.08128478 Ry

     iteration # 15     ecut=    60.00 Ry     beta= 0.30
     Davidson diagonalization with overlap
     ethr =  1.33E-04,  avg # of iterations =  6.6

     total cpu time spent up to now is       58.3 secs

     total energy              =    -562.37494448 Ry
     estimated scf accuracy    <       0.00865273 Ry

     iteration # 16     ecut=    60.00 Ry     beta= 0.30
     Davidson diagonalization with overlap
     ethr =  2.16E-05,  avg # of iterations =  6.6

     total cpu time spent up to now is       63.0 secs

     total energy              =    -562.37898463 Ry
     estimated scf accuracy    <       0.00105426 Ry

     iteration # 17     ecut=    60.00 Ry     beta= 0.30
     Davidson diagonalization with overlap
     ethr =  2.64E-06,  avg # of iterations = 10.3

     total cpu time spent up to now is       70.0 secs

     total energy              =    -562.38249429 Ry
     estimated scf accuracy    <       0.01469581 Ry

     iteration # 18     ecut=    60.00 Ry     beta= 0.30
     Davidson diagonalization with overlap
     ethr =  2.64E-06,  avg # of iterations =  1.2

     total cpu time spent up to now is       72.5 secs

     total energy              =    -562.37550824 Ry
     estimated scf accuracy    <       0.01389558 Ry

     iteration # 19     ecut=    60.00 Ry     beta= 0.30
     Davidson diagonalization with overlap
     ethr =  2.64E-06,  avg # of iterations = 11.9

     total cpu time spent up to now is       80.1 secs

     total energy              =    -562.37920759 Ry
     estimated scf accuracy    <       0.00257447 Ry

     iteration # 20     ecut=    60.00 Ry     beta= 0.30
     Davidson diagonalization with overlap
     ethr =  2.64E-06,  avg # of iterations =  2.3

     total cpu time spent up to now is       83.1 secs

     total energy              =    -562.37901566 Ry
     estimated scf accuracy    <       0.00094674 Ry

     iteration # 21     ecut=    60.00 Ry     beta= 0.30
     Davidson diagonalization with overlap
     ethr =  2.37E-06,  avg # of iterations =  6.4

     total cpu time spent up to now is       87.4 secs

     total energy              =    -562.37958787 Ry
     estimated scf accuracy    <       0.00010376 Ry

     iteration # 22     ecut=    60.00 Ry     beta= 0.30
     Davidson diagonalization with overlap
     ethr =  2.59E-07,  avg # of iterations =  8.6

     total cpu time spent up to now is       92.9 secs

     total energy              =    -562.37933825 Ry
     estimated scf accuracy    <       0.00064690 Ry

     iteration # 23     ecut=    60.00 Ry     beta= 0.30
     Davidson diagonalization with overlap
     ethr =  2.59E-07,  avg # of iterations =  7.8

     total cpu time spent up to now is       99.1 secs

     total energy              =    -562.37954866 Ry
     estimated scf accuracy    <       0.00011787 Ry

     iteration # 24     ecut=    60.00 Ry     beta= 0.30
     Davidson diagonalization with overlap
     ethr =  2.59E-07,  avg # of iterations =  1.8

     total cpu time spent up to now is      101.8 secs

     total energy              =    -562.37953979 Ry
     estimated scf accuracy    <       0.00005488 Ry

     iteration # 25     ecut=    60.00 Ry     beta= 0.30
     Davidson diagonalization with overlap
     ethr =  1.37E-07,  avg # of iterations =  3.0

     total cpu time spent up to now is      104.9 secs

     total energy              =    -562.37954490 Ry
     estimated scf accuracy    <       0.00001692 Ry

     iteration # 26     ecut=    60.00 Ry     beta= 0.30
     Davidson diagonalization with overlap
     ethr =  4.23E-08,  avg # of iterations =  4.6

     total cpu time spent up to now is      108.4 secs

     total energy              =    -562.37954919 Ry
     estimated scf accuracy    <       0.00000553 Ry

     iteration # 27     ecut=    60.00 Ry     beta= 0.30
     Davidson diagonalization with overlap
     ethr =  1.38E-08,  avg # of iterations =  4.0

     total cpu time spent up to now is      111.7 secs

     total energy              =    -562.37955113 Ry
     estimated scf accuracy    <       0.00000584 Ry

     iteration # 28     ecut=    60.00 Ry     beta= 0.30
     Davidson diagonalization with overlap
     ethr =  1.38E-08,  avg # of iterations =  1.8

     total cpu time spent up to now is      114.4 secs

     total energy              =    -562.37954837 Ry
     estimated scf accuracy    <       0.00000821 Ry

     iteration # 29     ecut=    60.00 Ry     beta= 0.30
     Davidson diagonalization with overlap
     ethr =  1.38E-08,  avg # of iterations =  2.9

     total cpu time spent up to now is      117.4 secs

     total energy              =    -562.37954764 Ry
     estimated scf accuracy    <       0.00000252 Ry

     iteration # 30     ecut=    60.00 Ry     beta= 0.30
     Davidson diagonalization with overlap
     ethr =  6.29E-09,  avg # of iterations =  8.0

     total cpu time spent up to now is      122.8 secs

     total energy              =    -562.37955013 Ry
     estimated scf accuracy    <       0.00000280 Ry

     iteration # 31     ecut=    60.00 Ry     beta= 0.30
     Davidson diagonalization with overlap
     ethr =  6.29E-09,  avg # of iterations =  1.5

     total cpu time spent up to now is      125.4 secs

     total energy              =    -562.37954920 Ry
     estimated scf accuracy    <       0.00000218 Ry

     iteration # 32     ecut=    60.00 Ry     beta= 0.30
     Davidson diagonalization with overlap
     ethr =  5.45E-09,  avg # of iterations =  3.9

     total cpu time spent up to now is      128.6 secs

     total energy              =    -562.37954936 Ry
     estimated scf accuracy    <       0.00000032 Ry

     iteration # 33     ecut=    60.00 Ry     beta= 0.30
     Davidson diagonalization with overlap
     ethr =  7.97E-10,  avg # of iterations = 11.3

     total cpu time spent up to now is      135.8 secs

     total energy              =    -562.37954959 Ry
     estimated scf accuracy    <       0.00000290 Ry

     iteration # 34     ecut=    60.00 Ry     beta= 0.30
     Davidson diagonalization with overlap
     ethr =  7.97E-10,  avg # of iterations =  7.6

     total cpu time spent up to now is      140.8 secs

     total energy              =    -562.37954940 Ry
     estimated scf accuracy    <       0.00000051 Ry

     iteration # 35     ecut=    60.00 Ry     beta= 0.30
     Davidson diagonalization with overlap
     ethr =  7.97E-10,  avg # of iterations = 11.3

     total cpu time spent up to now is      147.9 secs

     total energy              =    -562.37954994 Ry
     estimated scf accuracy    <       0.00000218 Ry

     iteration # 36     ecut=    60.00 Ry     beta= 0.30
     Davidson diagonalization with overlap
     ethr =  7.97E-10,  avg # of iterations =  1.4

     total cpu time spent up to now is      150.4 secs

     total energy              =    -562.37954953 Ry
     estimated scf accuracy    <       0.00000165 Ry

     iteration # 37     ecut=    60.00 Ry     beta= 0.30
     Davidson diagonalization with overlap
     ethr =  7.97E-10,  avg # of iterations =  6.7

     total cpu time spent up to now is      155.2 secs

     total energy              =    -562.37954972 Ry
     estimated scf accuracy    <       0.00000017 Ry

     iteration # 38     ecut=    60.00 Ry     beta= 0.30
     Davidson diagonalization with overlap
     ethr =  4.17E-10,  avg # of iterations =  3.2

     total cpu time spent up to now is      158.2 secs

     total energy              =    -562.37954971 Ry
     estimated scf accuracy    <       0.00000008 Ry

     iteration # 39     ecut=    60.00 Ry     beta= 0.30
     Davidson diagonalization with overlap
     ethr =  2.12E-10,  avg # of iterations =  6.9

     total cpu time spent up to now is      162.7 secs

     total energy              =    -562.37954976 Ry
     estimated scf accuracy    <       0.00000001 Ry

     iteration # 40     ecut=    60.00 Ry     beta= 0.30
     Davidson diagonalization with overlap
     ethr =  3.19E-11,  avg # of iterations =  5.0

     total cpu time spent up to now is      166.4 secs

     total energy              =    -562.37954976 Ry
     estimated scf accuracy    <          3.3E-09 Ry

     iteration # 41     ecut=    60.00 Ry     beta= 0.30
     Davidson diagonalization with overlap
     ethr =  8.32E-12,  avg # of iterations =  7.8

     total cpu time spent up to now is      171.6 secs

     total energy              =    -562.37954976 Ry
     estimated scf accuracy    <          3.9E-10 Ry

     iteration # 42     ecut=    60.00 Ry     beta= 0.30
     Davidson diagonalization with overlap
     ethr =  9.78E-13,  avg # of iterations =  8.3

     total cpu time spent up to now is      177.2 secs

     total energy              =    -562.37954976 Ry
     estimated scf accuracy    <          1.3E-09 Ry

     iteration # 43     ecut=    60.00 Ry     beta= 0.30
     Davidson diagonalization with overlap
     ethr =  9.78E-13,  avg # of iterations =  7.3

     total cpu time spent up to now is      183.0 secs

     total energy              =    -562.37954976 Ry
     estimated scf accuracy    <          9.4E-10 Ry

     iteration # 44     ecut=    60.00 Ry     beta= 0.30
     Davidson diagonalization with overlap
     ethr =  9.78E-13,  avg # of iterations =  6.2

     total cpu time spent up to now is      187.5 secs

     total energy              =    -562.37954976 Ry
     estimated scf accuracy    <          1.6E-11 Ry

     iteration # 45     ecut=    60.00 Ry     beta= 0.30
     Davidson diagonalization with overlap
     ethr =  1.00E-13,  avg # of iterations =  6.6

     total cpu time spent up to now is      192.2 secs

     total energy              =    -562.37954976 Ry
     estimated scf accuracy    <          1.7E-11 Ry

     iteration # 46     ecut=    60.00 Ry     beta= 0.30
     Davidson diagonalization with overlap
     ethr =  1.00E-13,  avg # of iterations =  1.6

     total cpu time spent up to now is      194.8 secs

     total energy              =    -562.37954976 Ry
     estimated scf accuracy    <          1.2E-11 Ry

     iteration # 47     ecut=    60.00 Ry     beta= 0.30
     Davidson diagonalization with overlap
     ethr =  1.00E-13,  avg # of iterations =  1.8

     total cpu time spent up to now is      197.5 secs

     total energy              =    -562.37954976 Ry
     estimated scf accuracy    <          4.4E-12 Ry

     iteration # 48     ecut=    60.00 Ry     beta= 0.30
     Davidson diagonalization with overlap
     ethr =  1.00E-13,  avg # of iterations =  1.5

     total cpu time spent up to now is      200.0 secs

     End of self-consistent calculation

     Number of k-points >= 100: set verbosity='high' to print the bands.

     highest occupied level (ev):    10.0482

!    total energy              =    -562.37954976 Ry

     total all-electron energy =     -8511.839770 Ry
     estimated scf accuracy    <          8.8E-13 Ry

     The total energy is the sum of the following terms:
     one-electron contribution =     -71.53348155 Ry
     hartree contribution      =      60.26684577 Ry
     xc contribution           =     -58.93335806 Ry
     ewald contribution        =    -213.16214682 Ry
     one-center paw contrib.   =    -279.01740911 Ry

     convergence has been achieved in  48 iterations

     Forces acting on atoms (cartesian axes, Ry/au):

     atom    1 type  1   force =     0.00000000    0.00000000    0.00000000
     atom    2 type  2   force =     0.00000000    0.00000000    0.00000000
     atom    3 type  3   force =     0.00000000    0.00000000    0.00000000
     atom    4 type  3   force =     0.00000000    0.00000000    0.00000000
     atom    5 type  3   force =     0.00000000    0.00000000    0.00000000

     Total force =     0.000000     Total SCF correction =     0.000000


     Computing stress (Cartesian axis) and pressure

          total   stress  (Ry/bohr**3)                   (kbar)     P=        0.08
   0.00000064  -0.00007725   0.00000000            0.09      -11.36        0.00
  -0.00007725   0.00000064   0.00000000          -11.36        0.09        0.00
   0.00000000   0.00000000   0.00000040            0.00        0.00        0.06


     Writing output data file ./tmp/SrTiO3_pbesol_shear_xy_p005.save/

     init_run     :      2.02s CPU      2.08s WALL (       1 calls)
     electrons    :    193.85s CPU    197.58s WALL (       1 calls)
     forces       :      0.82s CPU      0.83s WALL (       1 calls)
     stress       :      1.80s CPU      1.80s WALL (       1 calls)

     Called by init_run:
     wfcinit      :      1.24s CPU      1.27s WALL (       1 calls)
     potinit      :      0.25s CPU      0.26s WALL (       1 calls)
     hinit0       :      0.41s CPU      0.41s WALL (       1 calls)

     Called by electrons:
     c_bands      :    168.99s CPU    172.25s WALL (      48 calls)
     sum_band     :     16.86s CPU     17.24s WALL (      48 calls)
     v_of_rho     :      0.45s CPU      0.47s WALL (      49 calls)
     newd         :      2.78s CPU      2.81s WALL (      49 calls)
     PAW_pot      :      4.79s CPU      4.84s WALL (      49 calls)
     mix_rho      :      0.08s CPU      0.09s WALL (      48 calls)

     Called by c_bands:
     init_us_2    :      1.96s CPU      1.99s WALL (   10395 calls)
     cegterg      :    163.08s CPU    166.25s WALL (    5040 calls)

     Called by *egterg:
     cdiaghg      :     21.79s CPU     22.27s WALL (   30344 calls)
     h_psi        :     80.16s CPU     82.27s WALL (   30449 calls)
     s_psi        :     15.15s CPU     15.26s WALL (   30449 calls)
     g_psi        :      0.60s CPU      0.60s WALL (   25304 calls)

     Called by h_psi:
     h_psi:calbec :     14.23s CPU     14.73s WALL (   30449 calls)
     vloc_psi     :     50.56s CPU     52.01s WALL (   30449 calls)
     add_vuspsi   :     14.90s CPU     15.06s WALL (   30449 calls)

     General routines
     calbec       :     18.95s CPU     19.59s WALL (   36014 calls)
     fft          :      0.32s CPU      0.34s WALL (     660 calls)
     ffts         :      0.02s CPU      0.02s WALL (      97 calls)
     fftw         :     51.10s CPU     52.54s WALL (  745828 calls)
     interpolate  :      0.03s CPU      0.04s WALL (      49 calls)

     Parallel routines
     fft_scatt_xy :      6.68s CPU      6.87s WALL (  746585 calls)
     fft_scatt_yz :     13.03s CPU     13.43s WALL (  746585 calls)

     PWSCF        :   3m18.94s CPU   3m22.84s WALL


   This run was terminated on:  12:20:51  16Jul2026            

=------------------------------------------------------------------------------=
   JOB DONE.
=------------------------------------------------------------------------------=
