ANIMSTEPS   15
CRYSTAL
PRIMVEC
    3.938148975    0.000000000    0.000000000
    0.000000000    3.938148975    0.000000000
    0.000000000    0.000000000    3.938148975
PRIMCOORD    1
      5   1
   Sr     0.00000   0.00000   0.00000  -0.00000   0.00045   0.00871
   Ti     1.96907   1.96907   1.96907  -0.00000   0.00192   0.03735
   O      1.96907   1.96907   0.00000  -0.00000  -0.00263  -0.05724
   O      1.96907   0.00000   1.96907  -0.00000  -0.00294  -0.05112
   O      0.00000   1.96907   1.96907  -0.00000  -0.00263  -0.05112
PRIMCOORD    2
      5   1
   Sr     0.00000   0.00000   0.00000   0.00000  -0.00871   0.00045
   Ti     1.96907   1.96907   1.96907   0.00000  -0.03735   0.00192
   O      1.96907   1.96907   0.00000   0.00000   0.05112  -0.00294
   O      1.96907   0.00000   1.96907  -0.00000   0.05724  -0.00263
   O      0.00000   1.96907   1.96907  -0.00000   0.05112  -0.00263
PRIMCOORD    3
      5   1
   Sr     0.00000   0.00000   0.00000   0.00217   0.00464  -0.04443
   Ti     1.96907   1.96907   1.96907   0.00217   0.00464  -0.04443
   O      1.96907   1.96907   0.00000   0.00217   0.00464  -0.04443
   O      1.96907   0.00000   1.96907   0.00217   0.00464  -0.04443
   O      0.00000   1.96907   1.96907   0.00217   0.00464  -0.04443
PRIMCOORD    4
      5   1
   Sr     0.00000   0.00000   0.00000   0.01856  -0.04055  -0.00333
   Ti     1.96907   1.96907   1.96907   0.01856  -0.04055  -0.00333
   O      1.96907   1.96907   0.00000   0.01856  -0.04055  -0.00333
   O      1.96907   0.00000   1.96907   0.01856  -0.04055  -0.00333
   O      0.00000   1.96907   1.96907   0.01856  -0.04055  -0.00333
PRIMCOORD    5
      5   1
   Sr     0.00000   0.00000   0.00000  -0.04063  -0.01827  -0.00390
   Ti     1.96907   1.96907   1.96907  -0.04063  -0.01827  -0.00390
   O      1.96907   1.96907   0.00000  -0.04063  -0.01827  -0.00390
   O      1.96907   0.00000   1.96907  -0.04063  -0.01827  -0.00390
   O      0.00000   1.96907   1.96907  -0.04063  -0.01827  -0.00390
PRIMCOORD    6
      5   1
   Sr     0.00000   0.00000   0.00000  -0.05156  -0.00000  -0.00000
   Ti     1.96907   1.96907   1.96907   0.05916   0.00000   0.00000
   O      1.96907   1.96907   0.00000   0.03998   0.00000   0.00000
   O      1.96907   0.00000   1.96907   0.03998   0.00000   0.00000
   O      0.00000   1.96907   1.96907   0.02540   0.00000   0.00000
PRIMCOORD    7
      5   1
   Sr     0.00000   0.00000   0.00000  -0.00000   0.05253   0.00035
   Ti     1.96907   1.96907   1.96907   0.00000  -0.06550  -0.00044
   O      1.96907   1.96907   0.00000   0.00000  -0.03551  -0.00014
   O      1.96907   0.00000   1.96907   0.00000  -0.02069  -0.00024
   O      0.00000   1.96907   1.96907   0.00000  -0.03551  -0.00024
PRIMCOORD    8
      5   1
   Sr     0.00000   0.00000   0.00000  -0.00000  -0.00035   0.05253
   Ti     1.96907   1.96907   1.96907   0.00000   0.00044  -0.06550
   O      1.96907   1.96907   0.00000   0.00000   0.00024  -0.02069
   O      1.96907   0.00000   1.96907   0.00000   0.00014  -0.03551
   O      0.00000   1.96907   1.96907   0.00000   0.00024  -0.03551
PRIMCOORD    9
      5   1
   Sr     0.00000   0.00000   0.00000   0.00000  -0.00000  -0.00000
   Ti     1.96907   1.96907   1.96907  -0.00000   0.00000   0.00000
   O      1.96907   1.96907   0.00000   0.06301  -0.03207   0.00000
   O      1.96907   0.00000   1.96907  -0.06301   0.00000  -0.00138
   O      0.00000   1.96907   1.96907  -0.00000   0.03207   0.00138
PRIMCOORD   10
      5   1
   Sr     0.00000   0.00000   0.00000   0.00000  -0.00000   0.00000
   Ti     1.96907   1.96907   1.96907  -0.00000   0.00000  -0.00000
   O      1.96907   1.96907   0.00000   0.03127   0.06065  -0.00000
   O      1.96907   0.00000   1.96907  -0.03127   0.00000   0.01853
   O      0.00000   1.96907   1.96907   0.00000  -0.06065  -0.01853
PRIMCOORD   11
      5   1
   Sr     0.00000   0.00000   0.00000   0.00000  -0.00000   0.00000
   Ti     1.96907   1.96907   1.96907  -0.00000   0.00000  -0.00000
   O      1.96907   1.96907   0.00000  -0.00722  -0.01712  -0.00000
   O      1.96907   0.00000   1.96907   0.00722   0.00000   0.06823
   O      0.00000   1.96907   1.96907  -0.00000   0.01712  -0.06823
PRIMCOORD   12
      5   1
   Sr     0.00000   0.00000   0.00000  -0.00191   0.00000  -0.00000
   Ti     1.96907   1.96907   1.96907  -0.02613  -0.00000   0.00000
   O      1.96907   1.96907   0.00000   0.06295   0.00000   0.00000
   O      1.96907   0.00000   1.96907   0.06295  -0.00000   0.00000
   O      0.00000   1.96907   1.96907  -0.03727   0.00000  -0.00000
PRIMCOORD   13
      5   1
   Sr     0.00000   0.00000   0.00000  -0.00000  -0.00173   0.00016
   Ti     1.96907   1.96907   1.96907  -0.00000   0.00400  -0.00038
   O      1.96907   1.96907   0.00000   0.00000  -0.04143  -0.00761
   O      1.96907   0.00000   1.96907   0.00000   0.08036   0.00392
   O      0.00000   1.96907   1.96907  -0.00000  -0.04143   0.00392
PRIMCOORD   14
      5   1
   Sr     0.00000   0.00000   0.00000  -0.00000   0.00016   0.00173
   Ti     1.96907   1.96907   1.96907  -0.00000  -0.00038  -0.00400
   O      1.96907   1.96907   0.00000  -0.00000   0.00392  -0.08036
   O      1.96907   0.00000   1.96907  -0.00000  -0.00761   0.04143
   O      0.00000   1.96907   1.96907   0.00000   0.00392   0.04143
PRIMCOORD   15
      5   1
   Sr     0.00000   0.00000   0.00000   0.00593   0.00000   0.00000
   Ti     1.96907   1.96907   1.96907   0.02774  -0.00000   0.00000
   O      1.96907   1.96907   0.00000  -0.01034   0.00000   0.00000
   O      1.96907   0.00000   1.96907  -0.01034   0.00000   0.00000
   O      0.00000   1.96907   1.96907  -0.09477  -0.00000   0.00000
