ANIMSTEPS   15
CRYSTAL
PRIMVEC
    4.025306049    0.000000000    0.000000000
    0.000000000    4.025306049    0.000000000
    0.000000000    0.000000000    4.025306049
PRIMCOORD    1
      5   1
   Ba     0.00000   0.00000   0.00000  -0.00000  -0.00037  -0.00001
   Ti     2.01265   2.01265   2.01265  -0.00000  -0.04609  -0.00144
   O      2.01265   2.01265   0.00000   0.00000   0.03270   0.00237
   O      2.01265   0.00000   2.01265  -0.00000   0.07568   0.00102
   O      0.00000   2.01265   2.01265  -0.00000   0.03270   0.00102
PRIMCOORD    2
      5   1
   Ba     0.00000   0.00000   0.00000   0.00000  -0.00001   0.00037
   Ti     2.01265   2.01265   2.01265  -0.00000  -0.00144   0.04609
   O      2.01265   2.01265   0.00000   0.00000   0.00102  -0.07568
   O      2.01265   0.00000   2.01265   0.00000   0.00237  -0.03270
   O      0.00000   2.01265   2.01265   0.00000   0.00102  -0.03270
PRIMCOORD    3
      5   1
   Ba     0.00000   0.00000   0.00000  -0.04387  -0.00867   0.00050
   Ti     2.01265   2.01265   2.01265  -0.04387  -0.00867   0.00050
   O      2.01265   2.01265   0.00000  -0.04387  -0.00867   0.00050
   O      2.01265   0.00000   2.01265  -0.04387  -0.00867   0.00050
   O      0.00000   2.01265   2.01265  -0.04387  -0.00867   0.00050
PRIMCOORD    4
      5   1
   Ba     0.00000   0.00000   0.00000   0.00867  -0.04387  -0.00007
   Ti     2.01265   2.01265   2.01265   0.00867  -0.04387  -0.00007
   O      2.01265   2.01265   0.00000   0.00867  -0.04387  -0.00007
   O      2.01265   0.00000   2.01265   0.00867  -0.04387  -0.00007
   O      0.00000   2.01265   2.01265   0.00867  -0.04387  -0.00007
PRIMCOORD    5
      5   1
   Ba     0.00000   0.00000   0.00000   0.00051   0.00003   0.04472
   Ti     2.01265   2.01265   2.01265   0.00051   0.00003   0.04472
   O      2.01265   2.01265   0.00000   0.00051   0.00003   0.04472
   O      2.01265   0.00000   2.01265   0.00051   0.00003   0.04472
   O      0.00000   2.01265   2.01265   0.00051   0.00003   0.04472
PRIMCOORD    6
      5   1
   Ba     0.00000   0.00000   0.00000  -0.03598   0.00000   0.00000
   Ti     2.01265   2.01265   2.01265   0.06582  -0.00000  -0.00000
   O      2.01265   2.01265   0.00000   0.04308  -0.00000  -0.00000
   O      2.01265   0.00000   2.01265   0.04308  -0.00000  -0.00000
   O      0.00000   2.01265   2.01265   0.02573  -0.00000  -0.00000
PRIMCOORD    7
      5   1
   Ba     0.00000   0.00000   0.00000  -0.00000  -0.00030  -0.03300
   Ti     2.01265   2.01265   2.01265   0.00000   0.00044   0.04755
   O      2.01265   2.01265   0.00000   0.00000   0.00045   0.04285
   O      2.01265   0.00000   2.01265   0.00000   0.00039   0.04905
   O      0.00000   2.01265   2.01265   0.00000   0.00045   0.04905
PRIMCOORD    8
      5   1
   Ba     0.00000   0.00000   0.00000  -0.00000  -0.03300   0.00030
   Ti     2.01265   2.01265   2.01265   0.00000   0.04755  -0.00044
   O      2.01265   2.01265   0.00000   0.00000   0.04905  -0.00039
   O      2.01265   0.00000   2.01265   0.00000   0.04285  -0.00045
   O      0.00000   2.01265   2.01265   0.00000   0.04905  -0.00045
PRIMCOORD    9
      5   1
   Ba     0.00000   0.00000   0.00000  -0.00000   0.00000  -0.00000
   Ti     2.01265   2.01265   2.01265   0.00000  -0.00000  -0.00000
   O      2.01265   2.01265   0.00000   0.07050   0.00366  -0.00000
   O      2.01265   0.00000   2.01265  -0.07050   0.00000   0.00397
   O      0.00000   2.01265   2.01265   0.00000  -0.00366  -0.00397
PRIMCOORD   10
      5   1
   Ba     0.00000   0.00000   0.00000  -0.00000   0.00000  -0.00000
   Ti     2.01265   2.01265   2.01265   0.00000   0.00000   0.00000
   O      2.01265   2.01265   0.00000  -0.00436   0.06928   0.00000
   O      2.01265   0.00000   2.01265   0.00436  -0.00000   0.01346
   O      0.00000   2.01265   2.01265  -0.00000  -0.06928  -0.01346
PRIMCOORD   11
      5   1
   Ba     0.00000   0.00000   0.00000  -0.00000  -0.00000   0.00000
   Ti     2.01265   2.01265   2.01265   0.00000   0.00000  -0.00000
   O      2.01265   2.01265   0.00000  -0.00320  -0.01366   0.00000
   O      2.01265   0.00000   2.01265   0.00320   0.00000   0.06930
   O      0.00000   2.01265   2.01265   0.00000   0.01366  -0.06930
PRIMCOORD   12
      5   1
   Ba     0.00000   0.00000   0.00000   0.00081   0.00000  -0.00000
   Ti     2.01265   2.01265   2.01265   0.02078  -0.00000   0.00000
   O      2.01265   2.01265   0.00000  -0.05950   0.00000   0.00000
   O      2.01265   0.00000   2.01265  -0.05950  -0.00000  -0.00000
   O      0.00000   2.01265   2.01265   0.04988   0.00000  -0.00000
PRIMCOORD   13
      5   1
   Ba     0.00000   0.00000   0.00000   0.00000  -0.00068   0.00010
   Ti     2.01265   2.01265   2.01265   0.00000   0.01310  -0.00191
   O      2.01265   2.01265   0.00000  -0.00000  -0.05039  -0.00983
   O      2.01265   0.00000   2.01265  -0.00000   0.06739   0.00735
   O      0.00000   2.01265   2.01265   0.00000  -0.05039   0.00735
PRIMCOORD   14
      5   1
   Ba     0.00000   0.00000   0.00000  -0.00000   0.00010   0.00068
   Ti     2.01265   2.01265   2.01265  -0.00000  -0.00191  -0.01310
   O      2.01265   2.01265   0.00000   0.00000   0.00735  -0.06739
   O      2.01265   0.00000   2.01265  -0.00000  -0.00983   0.05039
   O      0.00000   2.01265   2.01265   0.00000   0.00735   0.05039
PRIMCOORD   15
      5   1
   Ba     0.00000   0.00000   0.00000  -0.00528  -0.00000  -0.00000
   Ti     2.01265   2.01265   2.01265  -0.02967   0.00000   0.00000
   O      2.01265   2.01265   0.00000   0.02197  -0.00000  -0.00000
   O      2.01265   0.00000   2.01265   0.02197   0.00000  -0.00000
   O      0.00000   2.01265   2.01265   0.09015  -0.00000   0.00000
