
     Program PWSCF v.6.7MaX starts on  5Jul2026 at 15:50: 8 

     This program is part of the open-source Quantum ESPRESSO suite
     for quantum simulation of materials; please cite
         "P. Giannozzi et al., J. Phys.:Condens. Matter 21 395502 (2009);
         "P. Giannozzi et al., J. Phys.:Condens. Matter 29 465901 (2017);
          URL http://www.quantum-espresso.org", 
     in publications or presentations arising from this work. More details at
     http://www.quantum-espresso.org/quote

     Parallel version (MPI), running on     8 processors

     MPI processes distributed on     1 nodes
     R & G space division:  proc/nbgrp/npool/nimage =       8
     Reading input from scf.in

     Current dimensions of program PWSCF are:
     Max number of different atomic species (ntypx) = 10
     Max number of k-points (npk) =  40000
     Max angular momentum in pseudopotentials (lmaxx) =  3
     file Sr.pbe-spn-kjpaw_psl.1.0.0.UPF: wavefunction(s)  4P renormalized
     file Ti.pbe-spn-kjpaw_psl.1.0.0.UPF: wavefunction(s)  3S 3P 3D renormalized
     file O.pbe-n-kjpaw_psl.1.0.0.UPF: wavefunction(s)  2S 2P renormalized

     Subspace diagonalization in iterative solution of the eigenvalue problem:
     one sub-group per band group will be used
     scalapack distributed-memory algorithm (size of sub-group:  2*  2 procs)


     Parallelization info
     --------------------
     sticks:   dense  smooth     PW     G-vecs:    dense   smooth      PW
     Min         262     131     39                 9115     3215     521
     Max         264     132     41                 9118     3218     522
     Sum        2101    1049    317                72935    25725    4169



     bravais-lattice index     =            1
     lattice parameter (alat)  =       7.4420  a.u.
     unit-cell volume          =     412.1668 (a.u.)^3
     number of atoms/cell      =            5
     number of atomic types    =            3
     number of electrons       =        40.00
     number of Kohn-Sham states=           20
     kinetic-energy cutoff     =      60.0000  Ry
     charge density cutoff     =     480.0000  Ry
     scf convergence threshold =      1.0E-12
     mixing beta               =       0.3000
     number of iterations used =            8  plain     mixing
     Exchange-correlation= SLA  PW   PBX  PBC
                           (   1   4   3   4   0   0   0)

     celldm(1)=   7.442023  celldm(2)=   0.000000  celldm(3)=   0.000000
     celldm(4)=   0.000000  celldm(5)=   0.000000  celldm(6)=   0.000000

     crystal axes: (cart. coord. in units of alat)
               a(1) = (   1.000000   0.000000   0.000000 )  
               a(2) = (   0.000000   1.000000   0.000000 )  
               a(3) = (   0.000000   0.000000   1.000000 )  

     reciprocal axes: (cart. coord. in units 2 pi/alat)
               b(1) = (  1.000000  0.000000  0.000000 )  
               b(2) = (  0.000000  1.000000  0.000000 )  
               b(3) = (  0.000000  0.000000  1.000000 )  


     PseudoPot. # 1 for Sr read from file:
     ./pseudo/Sr.pbe-spn-kjpaw_psl.1.0.0.UPF
     MD5 check sum: 304ac60131d69ebf2380f6d2a1d0bd9f
     Pseudo is Projector augmented-wave + core cor, Zval = 10.0
     Generated using &quot;atomic&quot; code by A. Dal Corso  v.6.2.2
     Shape of augmentation charge: PSQ
     Using radial grid of 1221 points,  6 beta functions with: 
                l(1) =   0
                l(2) =   0
                l(3) =   1
                l(4) =   1
                l(5) =   2
                l(6) =   2
     Q(r) pseudized with 0 coefficients 


     PseudoPot. # 2 for Ti read from file:
     ./pseudo/Ti.pbe-spn-kjpaw_psl.1.0.0.UPF
     MD5 check sum: 7ea84e4330344cbc938d542ff58a5c10
     Pseudo is Projector augmented-wave + core cor, Zval = 12.0
     Generated using &quot;atomic&quot; code by A. Dal Corso  v.6.2.2
     Shape of augmentation charge: PSQ
     Using radial grid of 1177 points,  6 beta functions with: 
                l(1) =   0
                l(2) =   0
                l(3) =   1
                l(4) =   1
                l(5) =   2
                l(6) =   2
     Q(r) pseudized with 0 coefficients 


     PseudoPot. # 3 for O  read from file:
     ./pseudo/O.pbe-n-kjpaw_psl.1.0.0.UPF
     MD5 check sum: 62c11a45e085f03adfe5482d7843b034
     Pseudo is Projector augmented-wave + core cor, Zval =  6.0
     Generated using &quot;atomic&quot; code by A. Dal Corso  v.6.3
     Shape of augmentation charge: PSQ
     Using radial grid of 1095 points,  4 beta functions with: 
                l(1) =   0
                l(2) =   0
                l(3) =   1
                l(4) =   1
     Q(r) pseudized with 0 coefficients 


     atomic species   valence    mass     pseudopotential
        Sr            10.00    87.62000     Sr( 1.00)
        Ti            12.00    47.86700     Ti( 1.00)
        O              6.00    15.99900     O ( 1.00)

     48 Sym. Ops., with inversion, found



   Cartesian axes

     site n.     atom                  positions (alat units)
         1           Sr  tau(   1) = (   0.0000000   0.0000000   0.0000000  )
         2           Ti  tau(   2) = (   0.5000000   0.5000000   0.5000000  )
         3           O   tau(   3) = (   0.5000000   0.5000000   0.0000000  )
         4           O   tau(   4) = (   0.5000000   0.0000000   0.5000000  )
         5           O   tau(   5) = (   0.0000000   0.5000000   0.5000000  )

     number of k points=    35
                       cart. coord. in units 2pi/alat
        k(    1) = (   0.0000000   0.0000000   0.0000000), wk =   0.0039062
        k(    2) = (   0.0000000   0.0000000   0.1250000), wk =   0.0234375
        k(    3) = (   0.0000000   0.0000000   0.2500000), wk =   0.0234375
        k(    4) = (   0.0000000   0.0000000   0.3750000), wk =   0.0234375
        k(    5) = (   0.0000000   0.0000000  -0.5000000), wk =   0.0117188
        k(    6) = (   0.0000000   0.1250000   0.1250000), wk =   0.0468750
        k(    7) = (   0.0000000   0.1250000   0.2500000), wk =   0.0937500
        k(    8) = (   0.0000000   0.1250000   0.3750000), wk =   0.0937500
        k(    9) = (   0.0000000   0.1250000  -0.5000000), wk =   0.0468750
        k(   10) = (   0.0000000   0.2500000   0.2500000), wk =   0.0468750
        k(   11) = (   0.0000000   0.2500000   0.3750000), wk =   0.0937500
        k(   12) = (   0.0000000   0.2500000  -0.5000000), wk =   0.0468750
        k(   13) = (   0.0000000   0.3750000   0.3750000), wk =   0.0468750
        k(   14) = (   0.0000000   0.3750000  -0.5000000), wk =   0.0468750
        k(   15) = (   0.0000000  -0.5000000  -0.5000000), wk =   0.0117188
        k(   16) = (   0.1250000   0.1250000   0.1250000), wk =   0.0312500
        k(   17) = (   0.1250000   0.1250000   0.2500000), wk =   0.0937500
        k(   18) = (   0.1250000   0.1250000   0.3750000), wk =   0.0937500
        k(   19) = (   0.1250000   0.1250000  -0.5000000), wk =   0.0468750
        k(   20) = (   0.1250000   0.2500000   0.2500000), wk =   0.0937500
        k(   21) = (   0.1250000   0.2500000   0.3750000), wk =   0.1875000
        k(   22) = (   0.1250000   0.2500000  -0.5000000), wk =   0.0937500
        k(   23) = (   0.1250000   0.3750000   0.3750000), wk =   0.0937500
        k(   24) = (   0.1250000   0.3750000  -0.5000000), wk =   0.0937500
        k(   25) = (   0.1250000  -0.5000000  -0.5000000), wk =   0.0234375
        k(   26) = (   0.2500000   0.2500000   0.2500000), wk =   0.0312500
        k(   27) = (   0.2500000   0.2500000   0.3750000), wk =   0.0937500
        k(   28) = (   0.2500000   0.2500000  -0.5000000), wk =   0.0468750
        k(   29) = (   0.2500000   0.3750000   0.3750000), wk =   0.0937500
        k(   30) = (   0.2500000   0.3750000  -0.5000000), wk =   0.0937500
        k(   31) = (   0.2500000  -0.5000000  -0.5000000), wk =   0.0234375
        k(   32) = (   0.3750000   0.3750000   0.3750000), wk =   0.0312500
        k(   33) = (   0.3750000   0.3750000  -0.5000000), wk =   0.0468750
        k(   34) = (   0.3750000  -0.5000000  -0.5000000), wk =   0.0234375
        k(   35) = (  -0.5000000  -0.5000000  -0.5000000), wk =   0.0039062

     Dense  grid:    72935 G-vectors     FFT dimensions: (  54,  54,  54)

     Smooth grid:    25725 G-vectors     FFT dimensions: (  40,  40,  40)

     Estimated max dynamical RAM per process >      43.75 MB

     Estimated total dynamical RAM >     350.00 MB

     Check: negative core charge=   -0.000002

     Initial potential from superposition of free atoms

     starting charge   39.99092, renormalised to   40.00000
     Starting wfcs are   30 randomized atomic wfcs
     Checking if some PAW data can be deallocated... 

     total cpu time spent up to now is        1.3 secs

     Self-consistent Calculation

     iteration #  1     ecut=    60.00 Ry     beta= 0.30
     Davidson diagonalization with overlap
     ethr =  1.00E-02,  avg # of iterations =  1.0

     total cpu time spent up to now is        2.3 secs

     total energy              =    -569.03337747 Ry
     estimated scf accuracy    <       2.19955075 Ry

     iteration #  2     ecut=    60.00 Ry     beta= 0.30
     Davidson diagonalization with overlap
     ethr =  5.50E-03,  avg # of iterations =  2.1

     total cpu time spent up to now is        3.5 secs

     total energy              =    -569.31589978 Ry
     estimated scf accuracy    <       0.25808318 Ry

     iteration #  3     ecut=    60.00 Ry     beta= 0.30
     Davidson diagonalization with overlap
     c_bands:  2 eigenvalues not converged
     c_bands:  1 eigenvalues not converged
     ethr =  6.45E-04,  avg # of iterations = 13.9

     total cpu time spent up to now is        6.8 secs

     total energy              =    -569.62789374 Ry
     estimated scf accuracy    <       3.37144721 Ry

     iteration #  4     ecut=    60.00 Ry     beta= 0.30
     Davidson diagonalization with overlap
     ethr =  6.45E-04,  avg # of iterations =  2.5

     total cpu time spent up to now is        8.0 secs

     total energy              =    -568.38918577 Ry
     estimated scf accuracy    <       2.29444350 Ry

     iteration #  5     ecut=    60.00 Ry     beta= 0.30
     Davidson diagonalization with overlap
     ethr =  6.45E-04,  avg # of iterations =  9.6

     total cpu time spent up to now is       10.6 secs

     total energy              =    -569.91862650 Ry
     estimated scf accuracy    <       1.82116145 Ry

     iteration #  6     ecut=    60.00 Ry     beta= 0.30
     Davidson diagonalization with overlap
     ethr =  6.45E-04,  avg # of iterations =  1.7

     total cpu time spent up to now is       11.6 secs

     total energy              =    -569.73216011 Ry
     estimated scf accuracy    <       1.24496872 Ry

     iteration #  7     ecut=    60.00 Ry     beta= 0.30
     Davidson diagonalization with overlap
     ethr =  6.45E-04,  avg # of iterations =  2.8

     total cpu time spent up to now is       12.9 secs

     total energy              =    -569.75200527 Ry
     estimated scf accuracy    <       0.68872904 Ry

     iteration #  8     ecut=    60.00 Ry     beta= 0.30
     Davidson diagonalization with overlap
     ethr =  6.45E-04,  avg # of iterations =  1.7

     total cpu time spent up to now is       13.9 secs

     total energy              =    -569.62643636 Ry
     estimated scf accuracy    <       0.61075311 Ry

     iteration #  9     ecut=    60.00 Ry     beta= 0.30
     Davidson diagonalization with overlap
     ethr =  6.45E-04,  avg # of iterations =  2.1

     total cpu time spent up to now is       15.1 secs

     total energy              =    -569.72592100 Ry
     estimated scf accuracy    <       0.34287091 Ry

     iteration # 10     ecut=    60.00 Ry     beta= 0.30
     Davidson diagonalization with overlap
     ethr =  6.45E-04,  avg # of iterations =  1.0

     total cpu time spent up to now is       16.1 secs

     total energy              =    -569.51223071 Ry
     estimated scf accuracy    <       0.44619684 Ry

     iteration # 11     ecut=    60.00 Ry     beta= 0.30
     Davidson diagonalization with overlap
     ethr =  6.45E-04,  avg # of iterations =  6.5

     total cpu time spent up to now is       17.8 secs

     total energy              =    -569.65224332 Ry
     estimated scf accuracy    <       0.01561384 Ry

     iteration # 12     ecut=    60.00 Ry     beta= 0.30
     Davidson diagonalization with overlap
     ethr =  3.90E-05,  avg # of iterations =  9.5

     total cpu time spent up to now is       20.0 secs

     total energy              =    -569.68041583 Ry
     estimated scf accuracy    <       0.09871914 Ry

     iteration # 13     ecut=    60.00 Ry     beta= 0.30
     Davidson diagonalization with overlap
     ethr =  3.90E-05,  avg # of iterations =  1.2

     total cpu time spent up to now is       21.1 secs

     total energy              =    -569.66834348 Ry
     estimated scf accuracy    <       0.09499027 Ry

     iteration # 14     ecut=    60.00 Ry     beta= 0.30
     Davidson diagonalization with overlap
     ethr =  3.90E-05,  avg # of iterations =  1.7

     total cpu time spent up to now is       22.2 secs

     total energy              =    -569.65247085 Ry
     estimated scf accuracy    <       0.06862246 Ry

     iteration # 15     ecut=    60.00 Ry     beta= 0.30
     Davidson diagonalization with overlap
     ethr =  3.90E-05,  avg # of iterations =  6.8

     total cpu time spent up to now is       24.0 secs

     total energy              =    -569.66309136 Ry
     estimated scf accuracy    <       0.00132164 Ry

     iteration # 16     ecut=    60.00 Ry     beta= 0.30
     Davidson diagonalization with overlap
     ethr =  3.30E-06,  avg # of iterations =  9.2

     total cpu time spent up to now is       26.3 secs

     total energy              =    -569.66531486 Ry
     estimated scf accuracy    <       0.00216931 Ry

     iteration # 17     ecut=    60.00 Ry     beta= 0.30
     Davidson diagonalization with overlap
     ethr =  3.30E-06,  avg # of iterations =  1.5

     total cpu time spent up to now is       27.3 secs

     total energy              =    -569.66518169 Ry
     estimated scf accuracy    <       0.00234233 Ry

     iteration # 18     ecut=    60.00 Ry     beta= 0.30
     Davidson diagonalization with overlap
     ethr =  3.30E-06,  avg # of iterations =  1.1

     total cpu time spent up to now is       28.3 secs

     total energy              =    -569.66644770 Ry
     estimated scf accuracy    <       0.00215718 Ry

     iteration # 19     ecut=    60.00 Ry     beta= 0.30
     Davidson diagonalization with overlap
     ethr =  3.30E-06,  avg # of iterations =  5.1

     total cpu time spent up to now is       29.8 secs

     total energy              =    -569.66811963 Ry
     estimated scf accuracy    <       0.00719244 Ry

     iteration # 20     ecut=    60.00 Ry     beta= 0.30
     Davidson diagonalization with overlap
     ethr =  3.30E-06,  avg # of iterations =  6.1

     total cpu time spent up to now is       31.4 secs

     total energy              =    -569.66313120 Ry
     estimated scf accuracy    <       0.01670668 Ry

     iteration # 21     ecut=    60.00 Ry     beta= 0.30
     Davidson diagonalization with overlap
     ethr =  3.30E-06,  avg # of iterations =  7.6

     total cpu time spent up to now is       33.5 secs

     total energy              =    -569.66539758 Ry
     estimated scf accuracy    <       0.00126143 Ry

     iteration # 22     ecut=    60.00 Ry     beta= 0.30
     Davidson diagonalization with overlap
     ethr =  3.15E-06,  avg # of iterations =  1.2

     total cpu time spent up to now is       34.5 secs

     total energy              =    -569.66543909 Ry
     estimated scf accuracy    <       0.00244039 Ry

     iteration # 23     ecut=    60.00 Ry     beta= 0.30
     Davidson diagonalization with overlap
     ethr =  3.15E-06,  avg # of iterations =  1.3

     total cpu time spent up to now is       35.6 secs

     total energy              =    -569.66506559 Ry
     estimated scf accuracy    <       0.00250250 Ry

     iteration # 24     ecut=    60.00 Ry     beta= 0.30
     Davidson diagonalization with overlap
     ethr =  3.15E-06,  avg # of iterations =  1.0

     total cpu time spent up to now is       36.6 secs

     total energy              =    -569.66469653 Ry
     estimated scf accuracy    <       0.00194323 Ry

     iteration # 25     ecut=    60.00 Ry     beta= 0.30
     Davidson diagonalization with overlap
     ethr =  3.15E-06,  avg # of iterations =  1.2

     total cpu time spent up to now is       37.7 secs

     total energy              =    -569.66488781 Ry
     estimated scf accuracy    <       0.00121160 Ry

     iteration # 26     ecut=    60.00 Ry     beta= 0.30
     Davidson diagonalization with overlap
     ethr =  3.03E-06,  avg # of iterations =  1.0

     total cpu time spent up to now is       38.7 secs

     total energy              =    -569.66578879 Ry
     estimated scf accuracy    <       0.00145529 Ry

     iteration # 27     ecut=    60.00 Ry     beta= 0.30
     Davidson diagonalization with overlap
     ethr =  3.03E-06,  avg # of iterations =  2.4

     total cpu time spent up to now is       39.8 secs

     total energy              =    -569.66378435 Ry
     estimated scf accuracy    <       0.00330329 Ry

     iteration # 28     ecut=    60.00 Ry     beta= 0.30
     Davidson diagonalization with overlap
     ethr =  3.03E-06,  avg # of iterations =  7.2

     total cpu time spent up to now is       41.9 secs

     total energy              =    -569.66556910 Ry
     estimated scf accuracy    <       0.00088557 Ry

     iteration # 29     ecut=    60.00 Ry     beta= 0.30
     Davidson diagonalization with overlap
     ethr =  2.21E-06,  avg # of iterations =  6.9

     total cpu time spent up to now is       43.7 secs

     total energy              =    -569.66274399 Ry
     estimated scf accuracy    <       0.00544915 Ry

     iteration # 30     ecut=    60.00 Ry     beta= 0.30
     Davidson diagonalization with overlap
     ethr =  2.21E-06,  avg # of iterations = 10.4

     total cpu time spent up to now is       46.2 secs

     total energy              =    -569.66388554 Ry
     estimated scf accuracy    <       0.00258436 Ry

     iteration # 31     ecut=    60.00 Ry     beta= 0.30
     Davidson diagonalization with overlap
     ethr =  2.21E-06,  avg # of iterations =  8.1

     total cpu time spent up to now is       48.4 secs

     total energy              =    -569.66483437 Ry
     estimated scf accuracy    <       0.00060026 Ry

     iteration # 32     ecut=    60.00 Ry     beta= 0.30
     Davidson diagonalization with overlap
     ethr =  1.50E-06,  avg # of iterations =  1.9

     total cpu time spent up to now is       49.5 secs

     total energy              =    -569.66456999 Ry
     estimated scf accuracy    <       0.00059771 Ry

     iteration # 33     ecut=    60.00 Ry     beta= 0.30
     Davidson diagonalization with overlap
     ethr =  1.49E-06,  avg # of iterations =  2.2

     total cpu time spent up to now is       50.6 secs

     total energy              =    -569.66490293 Ry
     estimated scf accuracy    <       0.00014274 Ry

     iteration # 34     ecut=    60.00 Ry     beta= 0.30
     Davidson diagonalization with overlap
     ethr =  3.57E-07,  avg # of iterations =  6.3

     total cpu time spent up to now is       52.4 secs

     total energy              =    -569.66453000 Ry
     estimated scf accuracy    <       0.00121723 Ry

     iteration # 35     ecut=    60.00 Ry     beta= 0.30
     Davidson diagonalization with overlap
     ethr =  3.57E-07,  avg # of iterations =  8.2

     total cpu time spent up to now is       54.6 secs

     total energy              =    -569.66472112 Ry
     estimated scf accuracy    <       0.00001178 Ry

     iteration # 36     ecut=    60.00 Ry     beta= 0.30
     Davidson diagonalization with overlap
     c_bands:  3 eigenvalues not converged
     ethr =  2.95E-08,  avg # of iterations = 13.7

     total cpu time spent up to now is       58.0 secs

     total energy              =    -569.66459004 Ry
     estimated scf accuracy    <       0.00057890 Ry

     iteration # 37     ecut=    60.00 Ry     beta= 0.30
     Davidson diagonalization with overlap
     c_bands:  4 eigenvalues not converged
     ethr =  2.95E-08,  avg # of iterations = 14.5

     total cpu time spent up to now is       61.6 secs

     total energy              =    -569.66473100 Ry
     estimated scf accuracy    <       0.00005895 Ry

     iteration # 38     ecut=    60.00 Ry     beta= 0.30
     Davidson diagonalization with overlap
     ethr =  2.95E-08,  avg # of iterations =  1.2

     total cpu time spent up to now is       62.7 secs

     total energy              =    -569.66472400 Ry
     estimated scf accuracy    <       0.00004346 Ry

     iteration # 39     ecut=    60.00 Ry     beta= 0.30
     Davidson diagonalization with overlap
     ethr =  2.95E-08,  avg # of iterations =  5.8

     total cpu time spent up to now is       64.2 secs

     total energy              =    -569.66473303 Ry
     estimated scf accuracy    <       0.00001001 Ry

     iteration # 40     ecut=    60.00 Ry     beta= 0.30
     Davidson diagonalization with overlap
     ethr =  2.50E-08,  avg # of iterations =  1.6

     total cpu time spent up to now is       65.3 secs

     total energy              =    -569.66474059 Ry
     estimated scf accuracy    <       0.00001867 Ry

     iteration # 41     ecut=    60.00 Ry     beta= 0.30
     Davidson diagonalization with overlap
     ethr =  2.50E-08,  avg # of iterations =  8.1

     total cpu time spent up to now is       67.3 secs

     total energy              =    -569.66481072 Ry
     estimated scf accuracy    <       0.00011431 Ry

     iteration # 42     ecut=    60.00 Ry     beta= 0.30
     Davidson diagonalization with overlap
     ethr =  2.50E-08,  avg # of iterations = 12.1

     total cpu time spent up to now is       70.3 secs

     total energy              =    -569.66474982 Ry
     estimated scf accuracy    <       0.00060699 Ry

     iteration # 43     ecut=    60.00 Ry     beta= 0.30
     Davidson diagonalization with overlap
     ethr =  2.50E-08,  avg # of iterations =  9.4

     total cpu time spent up to now is       72.7 secs

     total energy              =    -569.66474332 Ry
     estimated scf accuracy    <       0.00024796 Ry

     iteration # 44     ecut=    60.00 Ry     beta= 0.30
     Davidson diagonalization with overlap
     ethr =  2.50E-08,  avg # of iterations =  5.1

     total cpu time spent up to now is       74.2 secs

     total energy              =    -569.66476164 Ry
     estimated scf accuracy    <       0.00016716 Ry

     iteration # 45     ecut=    60.00 Ry     beta= 0.30
     Davidson diagonalization with overlap
     ethr =  2.50E-08,  avg # of iterations =  1.1

     total cpu time spent up to now is       75.3 secs

     total energy              =    -569.66475885 Ry
     estimated scf accuracy    <       0.00018916 Ry

     iteration # 46     ecut=    60.00 Ry     beta= 0.30
     Davidson diagonalization with overlap
     ethr =  2.50E-08,  avg # of iterations =  1.1

     total cpu time spent up to now is       76.3 secs

     total energy              =    -569.66469220 Ry
     estimated scf accuracy    <       0.00018194 Ry

     iteration # 47     ecut=    60.00 Ry     beta= 0.30
     Davidson diagonalization with overlap
     ethr =  2.50E-08,  avg # of iterations = 10.9

     total cpu time spent up to now is       78.9 secs

     total energy              =    -569.66474109 Ry
     estimated scf accuracy    <       0.00000145 Ry

     iteration # 48     ecut=    60.00 Ry     beta= 0.30
     Davidson diagonalization with overlap
     c_bands:  1 eigenvalues not converged
     c_bands:  4 eigenvalues not converged
     c_bands:  3 eigenvalues not converged
     c_bands:  1 eigenvalues not converged
     c_bands:  1 eigenvalues not converged
     ethr =  3.64E-09,  avg # of iterations = 16.8

     total cpu time spent up to now is       83.3 secs

     total energy              =    -569.66471310 Ry
     estimated scf accuracy    <       0.00028261 Ry

     iteration # 49     ecut=    60.00 Ry     beta= 0.30
     Davidson diagonalization with overlap
     c_bands:  1 eigenvalues not converged
     ethr =  3.64E-09,  avg # of iterations = 13.9

     total cpu time spent up to now is       87.0 secs

     total energy              =    -569.66472485 Ry
     estimated scf accuracy    <       0.00003228 Ry

     iteration # 50     ecut=    60.00 Ry     beta= 0.30
     Davidson diagonalization with overlap
     ethr =  3.64E-09,  avg # of iterations =  9.6

     total cpu time spent up to now is       89.3 secs

     total energy              =    -569.66472432 Ry
     estimated scf accuracy    <       0.00000418 Ry

     iteration # 51     ecut=    60.00 Ry     beta= 0.30
     Davidson diagonalization with overlap
     ethr =  3.64E-09,  avg # of iterations = 11.8

     total cpu time spent up to now is       92.2 secs

     total energy              =    -569.66472443 Ry
     estimated scf accuracy    <       0.00002008 Ry

     iteration # 52     ecut=    60.00 Ry     beta= 0.30
     Davidson diagonalization with overlap
     ethr =  3.64E-09,  avg # of iterations =  9.5

     total cpu time spent up to now is       94.6 secs

     total energy              =    -569.66472711 Ry
     estimated scf accuracy    <       0.00000045 Ry

     iteration # 53     ecut=    60.00 Ry     beta= 0.30
     Davidson diagonalization with overlap
     ethr =  1.13E-09,  avg # of iterations =  5.0

     total cpu time spent up to now is       96.1 secs

     total energy              =    -569.66472740 Ry
     estimated scf accuracy    <          2.0E-09 Ry

     iteration # 54     ecut=    60.00 Ry     beta= 0.30
     Davidson diagonalization with overlap
     c_bands:  2 eigenvalues not converged
     c_bands:  4 eigenvalues not converged
     c_bands:  2 eigenvalues not converged
     c_bands:  3 eigenvalues not converged
     c_bands:  3 eigenvalues not converged
     c_bands:  5 eigenvalues not converged
     ethr =  5.12E-12,  avg # of iterations = 15.6

     total cpu time spent up to now is       99.7 secs

     total energy              =    -569.66472741 Ry
     estimated scf accuracy    <       0.00000004 Ry

     iteration # 55     ecut=    60.00 Ry     beta= 0.30
     Davidson diagonalization with overlap
     c_bands:  1 eigenvalues not converged
     ethr =  5.12E-12,  avg # of iterations = 14.5

     total cpu time spent up to now is      103.3 secs

     total energy              =    -569.66472743 Ry
     estimated scf accuracy    <       0.00000004 Ry

     iteration # 56     ecut=    60.00 Ry     beta= 0.30
     Davidson diagonalization with overlap
     ethr =  5.12E-12,  avg # of iterations =  7.7

     total cpu time spent up to now is      105.4 secs

     total energy              =    -569.66472743 Ry
     estimated scf accuracy    <          8.7E-09 Ry

     iteration # 57     ecut=    60.00 Ry     beta= 0.30
     Davidson diagonalization with overlap
     ethr =  5.12E-12,  avg # of iterations =  2.0

     total cpu time spent up to now is      106.5 secs

     total energy              =    -569.66472743 Ry
     estimated scf accuracy    <       0.00000001 Ry

     iteration # 58     ecut=    60.00 Ry     beta= 0.30
     Davidson diagonalization with overlap
     ethr =  5.12E-12,  avg # of iterations =  2.9

     total cpu time spent up to now is      107.7 secs

     total energy              =    -569.66472742 Ry
     estimated scf accuracy    <          9.4E-09 Ry

     iteration # 59     ecut=    60.00 Ry     beta= 0.30
     Davidson diagonalization with overlap
     ethr =  5.12E-12,  avg # of iterations = 11.3

     total cpu time spent up to now is      110.3 secs

     total energy              =    -569.66472742 Ry
     estimated scf accuracy    <          8.2E-09 Ry

     iteration # 60     ecut=    60.00 Ry     beta= 0.30
     Davidson diagonalization with overlap
     ethr =  5.12E-12,  avg # of iterations =  8.3

     total cpu time spent up to now is      112.4 secs

     total energy              =    -569.66472743 Ry
     estimated scf accuracy    <          1.1E-09 Ry

     iteration # 61     ecut=    60.00 Ry     beta= 0.30
     Davidson diagonalization with overlap
     ethr =  2.77E-12,  avg # of iterations =  2.5

     total cpu time spent up to now is      113.5 secs

     total energy              =    -569.66472743 Ry
     estimated scf accuracy    <          1.2E-09 Ry

     iteration # 62     ecut=    60.00 Ry     beta= 0.30
     Davidson diagonalization with overlap
     ethr =  2.77E-12,  avg # of iterations =  1.3

     total cpu time spent up to now is      114.5 secs

     total energy              =    -569.66472743 Ry
     estimated scf accuracy    <          1.1E-09 Ry

     iteration # 63     ecut=    60.00 Ry     beta= 0.30
     Davidson diagonalization with overlap
     ethr =  2.77E-12,  avg # of iterations =  1.3

     total cpu time spent up to now is      115.5 secs

     total energy              =    -569.66472743 Ry
     estimated scf accuracy    <          6.0E-10 Ry

     iteration # 64     ecut=    60.00 Ry     beta= 0.30
     Davidson diagonalization with overlap
     ethr =  1.50E-12,  avg # of iterations =  8.4

     total cpu time spent up to now is      117.5 secs

     total energy              =    -569.66472743 Ry
     estimated scf accuracy    <          1.1E-09 Ry

     iteration # 65     ecut=    60.00 Ry     beta= 0.30
     Davidson diagonalization with overlap
     ethr =  1.50E-12,  avg # of iterations =  1.1

     total cpu time spent up to now is      118.5 secs

     total energy              =    -569.66472743 Ry
     estimated scf accuracy    <          6.1E-10 Ry

     iteration # 66     ecut=    60.00 Ry     beta= 0.30
     Davidson diagonalization with overlap
     ethr =  1.50E-12,  avg # of iterations =  5.6

     total cpu time spent up to now is      119.9 secs

     total energy              =    -569.66472743 Ry
     estimated scf accuracy    <          3.0E-12 Ry

     iteration # 67     ecut=    60.00 Ry     beta= 0.30
     Davidson diagonalization with overlap
     ethr =  1.00E-13,  avg # of iterations =  8.5

     total cpu time spent up to now is      121.8 secs

     total energy              =    -569.66472743 Ry
     estimated scf accuracy    <          1.8E-10 Ry

     iteration # 68     ecut=    60.00 Ry     beta= 0.30
     Davidson diagonalization with overlap
     ethr =  1.00E-13,  avg # of iterations =  1.2

     total cpu time spent up to now is      122.8 secs

     total energy              =    -569.66472743 Ry
     estimated scf accuracy    <          1.5E-10 Ry

     iteration # 69     ecut=    60.00 Ry     beta= 0.30
     Davidson diagonalization with overlap
     ethr =  1.00E-13,  avg # of iterations =  7.3

     total cpu time spent up to now is      124.5 secs

     total energy              =    -569.66472743 Ry
     estimated scf accuracy    <          5.7E-12 Ry

     iteration # 70     ecut=    60.00 Ry     beta= 0.30
     Davidson diagonalization with overlap
     ethr =  1.00E-13,  avg # of iterations =  2.0

     total cpu time spent up to now is      125.6 secs

     End of self-consistent calculation

          k = 0.0000 0.0000 0.0000 (  3239 PWs)   bands (ev):

   -46.8209 -23.1133 -23.0685 -23.0685 -23.0685  -7.6350  -6.6751  -6.6751
    -5.0982  -5.0982  -5.0982   6.9169   6.9169   6.9169   8.5675   8.5675
     8.5675   9.3409   9.3409   9.3409

          k = 0.0000 0.0000 0.1250 (  3211 PWs)   bands (ev):

   -46.8207 -23.1364 -23.0681 -23.0681 -23.0515  -7.6392  -6.6819  -6.6697
    -5.0920  -5.0920  -4.9986   6.7176   6.9091   6.9091   8.3713   8.3713
     8.4372   8.8777   9.2463   9.2463

          k = 0.0000 0.0000 0.2500 (  3218 PWs)   bands (ev):

   -46.8202 -23.1737 -23.0672 -23.0672 -23.0291  -7.6957  -6.6568  -6.6124
    -5.0769  -5.0769  -4.7908   6.2170   6.8969   6.8969   7.9470   7.9470
     8.0566   8.1511   9.1086   9.1086

          k = 0.0000 0.0000 0.3750 (  3242 PWs)   bands (ev):

   -46.8198 -23.2040 -23.0663 -23.0663 -23.0136  -7.7912  -6.6439  -6.4604
    -5.0618  -5.0618  -4.6149   5.6850   6.9052   6.9052   7.4717   7.5676
     7.5676   7.8957   9.0136   9.0136

          k = 0.0000 0.0000-0.5000 (  3218 PWs)   bands (ev):

   -46.8196 -23.2155 -23.0659 -23.0659 -23.0081  -7.8359  -6.6384  -6.3814
    -5.0554  -5.0554  -4.5493   5.4574   6.9241   6.9241   7.2730   7.4092
     7.4092   7.7972   8.9800   8.9800

          k = 0.0000 0.1250 0.1250 (  3229 PWs)   bands (ev):

   -46.8205 -23.1457 -23.0775 -23.0677 -23.0389  -7.6273  -6.7006  -6.6615
    -5.0856  -5.0383  -4.9605   6.5903   6.8276   6.9022   7.9566   8.2145
     8.5755   8.7196   8.9918   9.1185

          k = 0.0000 0.1250 0.2500 (  3229 PWs)   bands (ev):

   -46.8201 -23.1709 -23.0803 -23.0668 -23.0251  -7.6464  -6.6842  -6.6198
    -5.0701  -5.0109  -4.7945   6.1640   6.7220   6.8922   7.3855   7.8452
     8.1171   8.5527   8.8306   8.9339

          k = 0.0000 0.1250 0.3750 (  3249 PWs)   bands (ev):

   -46.8196 -23.1965 -23.0772 -23.0659 -23.0169  -7.7158  -6.6363  -6.5213
    -5.0545  -4.9978  -4.6410   5.6688   6.6099   6.9038   6.9352   7.4912
     7.7586   8.4402   8.7066   8.8165

          k = 0.0000 0.1250-0.5000 (  3238 PWs)   bands (ev):

   -46.8194 -23.2069 -23.0753 -23.0655 -23.0141  -7.7529  -6.6211  -6.4582
    -5.0480  -4.9920  -4.5833   5.4486   6.5390   6.8005   6.9266   7.3367
     7.6482   8.3856   8.6601   8.7769

          k = 0.0000 0.2500 0.2500 (  3243 PWs)   bands (ev):

   -46.8196 -23.1686 -23.0991 -23.0660 -23.0237  -7.5548  -6.7548  -6.5783
    -5.0536  -4.8981  -4.7769   5.9517   6.4064   6.7244   6.8862   7.5871
     8.0350   8.3684   8.6462   8.9813

          k = 0.0000 0.2500 0.3750 (  3235 PWs)   bands (ev):

   -46.8191 -23.1768 -23.1015 -23.0651 -23.0280  -7.5227  -6.7164  -6.5598
    -5.0370  -4.8651  -4.6944   5.6052   6.0231   6.3752   6.9018   7.3068
     7.8988   8.2948   8.4568   9.0709

          k = 0.0000 0.2500-0.5000 (  3238 PWs)   bands (ev):

   -46.8190 -23.1830 -23.0979 -23.0647 -23.0315  -7.5288  -6.6214  -6.6066
    -5.0301  -4.8599  -4.6531   5.4227   5.8240   6.3306   6.9328   7.1678
     7.8652   8.2683   8.3947   9.0783

          k = 0.0000 0.3750 0.3750 (  3243 PWs)   bands (ev):

   -46.8187 -23.1555 -23.1207 -23.0642 -23.0458  -7.3127  -6.8010  -6.5962
    -5.0193  -4.7610  -4.7197   5.4181   5.6427   5.8457   6.9105   7.1122
     8.0064   8.1890   8.1982   9.3962

          k = 0.0000 0.3750-0.5000 (  3250 PWs)   bands (ev):

   -46.8185 -23.1509 -23.1204 -23.0639 -23.0572  -7.2298  -6.7636  -6.6791
    -5.0119  -4.7472  -4.6968   5.3506   5.3507   5.7716   6.9391   7.0065
     8.0746   8.0957   8.1659   9.4877

          k = 0.0000-0.5000-0.5000 (  3216 PWs)   bands (ev):

   -46.8183 -23.1296 -23.1296 -23.0757 -23.0635  -7.0027  -6.8182  -6.8182
    -5.0044  -4.7044  -4.7044   5.1856   5.2452   5.6050   6.9418   6.9418
     7.9871   8.1611   8.1611   9.6120

          k = 0.1250 0.1250 0.1250 (  3218 PWs)   bands (ev):

   -46.8203 -23.1503 -23.0771 -23.0771 -23.0310  -7.6040  -6.6864  -6.6864
    -5.0462  -5.0462  -4.9118   6.4595   6.8240   6.8240   7.8605   7.8605
     8.4356   8.7177   8.9485   8.9485

          k = 0.1250 0.1250 0.2500 (  3219 PWs)   bands (ev):

   -46.8199 -23.1676 -23.0825 -23.0761 -23.0228  -7.5939  -6.6715  -6.6511
    -5.0664  -4.9835  -4.7840   6.0986   6.6436   6.8173   7.3789   7.3869
     8.1215   8.7010   8.7065   8.8367

          k = 0.1250 0.1250 0.3750 (  3246 PWs)   bands (ev):

   -46.8194 -23.1894 -23.0783 -23.0752 -23.0198  -7.6401  -6.6143  -6.5675
    -5.0882  -4.9320  -4.6667   5.6528   6.4648   6.8202   6.8770   7.0481
     8.1200   8.4673   8.5601   8.7423

          k = 0.1250 0.1250-0.5000 (  3248 PWs)   bands (ev):

   -46.8192 -23.1988 -23.0751 -23.0748 -23.0195  -7.6700  -6.5987  -6.5054
    -5.0977  -4.9108  -4.6226   5.4415   6.3956   6.7074   6.8419   6.9087
     8.2368   8.2741   8.4861   8.7090

          k = 0.1250 0.2500 0.2500 (  3239 PWs)   bands (ev):

   -46.8194 -23.1639 -23.0987 -23.0772 -23.0237  -7.4919  -6.7228  -6.6004
    -5.0640  -4.9365  -4.7457   5.8937   6.4092   6.7219   6.7758   7.2631
     7.7224   8.6347   8.6441   8.9865

          k = 0.1250 0.2500 0.3750 (  3231 PWs)   bands (ev):

   -46.8189 -23.1708 -23.1011 -23.0755 -23.0302  -7.4461  -6.6855  -6.5590
    -5.0912  -4.8664  -4.7127   5.5950   6.0405   6.3892   6.7141   6.9694
     7.7252   8.4558   8.5821   9.0780

          k = 0.1250 0.2500-0.5000 (  3256 PWs)   bands (ev):

   -46.8188 -23.1768 -23.0975 -23.0741 -23.0349  -7.4464  -6.6168  -6.5702
    -5.1075  -4.8269  -4.7065   5.4203   5.8639   6.3249   6.7458   6.8114
     7.7820   8.3638   8.5543   9.0856

          k = 0.1250 0.3750 0.3750 (  3233 PWs)   bands (ev):

   -46.8185 -23.1511 -23.1202 -23.0742 -23.0467  -7.2339  -6.7552  -6.5657
    -5.0795  -4.8259  -4.7395   5.4496   5.6999   5.8492   6.6844   6.8515
     7.5908   8.4358   8.5139   9.4033

          k = 0.1250 0.3750-0.5000 (  3238 PWs)   bands (ev):

   -46.8183 -23.1476 -23.1199 -23.0731 -23.0576  -7.1481  -6.7243  -6.6271
    -5.0765  -4.7870  -4.7656   5.3548   5.4537   5.7763   6.7254   6.7381
     7.5818   8.4398   8.4869   9.4967

          k = 0.1250-0.5000-0.5000 (  3220 PWs)   bands (ev):

   -46.8181 -23.1291 -23.1291 -23.0733 -23.0728  -6.9135  -6.7677  -6.7677
    -5.0557  -4.7794  -4.7794   5.2511   5.3099   5.6075   6.7119   6.7119
     7.5274   8.4799   8.4799   9.6241

          k = 0.2500 0.2500 0.2500 (  3221 PWs)   bands (ev):

   -46.8189 -23.1544 -23.0977 -23.0977 -23.0281  -7.3527  -6.6391  -6.6391
    -5.0358  -5.0358  -4.7183   5.7571   6.4140   6.4140   6.8245   6.8245
     6.9462   8.7954   8.7954   9.0998

          k = 0.2500 0.2500 0.3750 (  3222 PWs)   bands (ev):

   -46.8185 -23.1552 -23.1022 -23.0967 -23.0381  -7.2506  -6.6349  -6.5434
    -5.1475  -4.9436  -4.7495   5.5668   6.0132   6.3763   6.4003   6.5510
     6.9815   8.7879   8.8922   9.1870

          k = 0.2500 0.2500-0.5000 (  3232 PWs)   bands (ev):

   -46.8183 -23.1602 -23.0968 -23.0963 -23.0449  -7.2258  -6.6131  -6.4989
    -5.1986  -4.8353  -4.8314   5.4106   5.8703   6.2507   6.3622   6.4915
     7.0286   8.7812   8.9124   9.1948

          k = 0.2500 0.3750 0.3750 (  3244 PWs)   bands (ev):

   -46.8181 -23.1396 -23.1192 -23.0972 -23.0509  -7.0329  -6.6305  -6.5016
    -5.1777  -4.9967  -4.8257   5.4888   5.8584   5.8672   6.3126   6.4686
     6.6824   8.9282   9.0069   9.4321

          k = 0.2500 0.3750-0.5000 (  3232 PWs)   bands (ev):

   -46.8179 -23.1394 -23.1188 -23.0955 -23.0590  -6.9349  -6.6210  -6.4986
    -5.2082  -4.9413  -4.9132   5.3582   5.6991   5.7878   6.3346   6.3741
     6.6789   8.9738   9.0288   9.5234

          k = 0.2500-0.5000-0.5000 (  3236 PWs)   bands (ev):

   -46.8177 -23.1280 -23.1280 -23.0951 -23.0676  -6.6895  -6.6280  -6.6280
    -5.1761  -4.9776  -4.9776   5.2562   5.6109   5.6134   6.3626   6.3626
     6.5909   9.0487   9.0487   9.6536

          k = 0.3750 0.3750 0.3750 (  3253 PWs)   bands (ev):

   -46.8176 -23.1278 -23.1181 -23.1181 -23.0572  -6.7998  -6.4744  -6.4744
    -5.1984  -5.1984  -4.9688   5.4503   5.8702   5.8702   5.9871   6.2058
     6.2058   9.3058   9.3058   9.5137

          k = 0.3750 0.3750-0.5000 (  3236 PWs)   bands (ev):

   -46.8174 -23.1307 -23.1179 -23.1176 -23.0609  -6.6679  -6.5021  -6.3936
    -5.2980  -5.1329  -5.0934   5.3107   5.7612   5.8774   5.9088   6.1131
     6.2265   9.3671   9.4410   9.5855

          k = 0.3750-0.5000-0.5000 (  3232 PWs)   bands (ev):

   -46.8172 -23.1269 -23.1269 -23.1173 -23.0619  -6.4515  -6.4469  -6.4469
    -5.2920  -5.2164  -5.2164   5.2082   5.6194   5.8400   5.9138   6.1227
     6.1227   9.5163   9.5163   9.6836

          k =-0.5000-0.5000-0.5000 (  3184 PWs)   bands (ev):

   -46.8170 -23.1264 -23.1264 -23.1264 -23.0594  -6.3482  -6.3482  -6.3482
    -5.3387  -5.3387  -5.3387   5.1191   5.6220   5.6220   6.0401   6.0401
     6.0401   9.6963   9.6963   9.6963

     highest occupied level (ev):     9.6963

!    total energy              =    -569.66472743 Ry

     total all-electron energy =     -8518.987558 Ry
     estimated scf accuracy    <          8.6E-13 Ry

     The total energy is the sum of the following terms:
     one-electron contribution =     -75.32021857 Ry
     hartree contribution      =      61.62073844 Ry
     xc contribution           =     -59.48440982 Ry
     ewald contribution        =    -210.71804044 Ry
     one-center paw contrib.   =    -285.76279703 Ry

     convergence has been achieved in  70 iterations

     Forces acting on atoms (cartesian axes, Ry/au):

     atom    1 type  1   force =     0.00000000    0.00000000    0.00000000
     atom    2 type  2   force =     0.00000000    0.00000000    0.00000000
     atom    3 type  3   force =     0.00000000    0.00000000    0.00000000
     atom    4 type  3   force =     0.00000000    0.00000000    0.00000000
     atom    5 type  3   force =     0.00000000    0.00000000    0.00000000

     Total force =     0.000000     Total SCF correction =     0.000000


     Computing stress (Cartesian axis) and pressure

          total   stress  (Ry/bohr**3)                   (kbar)     P=        0.01
   0.00000008   0.00000000   0.00000000            0.01        0.00        0.00
   0.00000000   0.00000008   0.00000000            0.00        0.01        0.00
   0.00000000   0.00000000   0.00000008            0.00        0.00        0.01


     Writing output data file ./tmp/SrTiO3_pristine.save/

     init_run     :      0.87s CPU      0.92s WALL (       1 calls)
     electrons    :    121.94s CPU    124.31s WALL (       1 calls)
     forces       :      0.27s CPU      0.27s WALL (       1 calls)
     stress       :      0.72s CPU      0.72s WALL (       1 calls)

     Called by init_run:
     wfcinit      :      0.45s CPU      0.46s WALL (       1 calls)
     potinit      :      0.14s CPU      0.15s WALL (       1 calls)
     hinit0       :      0.17s CPU      0.17s WALL (       1 calls)

     Called by electrons:
     c_bands      :    100.26s CPU    102.28s WALL (      70 calls)
     sum_band     :     10.72s CPU     10.96s WALL (      70 calls)
     v_of_rho     :      0.66s CPU      0.69s WALL (      71 calls)
     newd         :      3.06s CPU      3.09s WALL (      71 calls)
     PAW_pot      :      7.17s CPU      7.24s WALL (      71 calls)
     mix_rho      :      0.13s CPU      0.13s WALL (      70 calls)

     Called by c_bands:
     init_us_2    :      1.03s CPU      1.04s WALL (    5005 calls)
     cegterg      :     97.15s CPU     99.14s WALL (    2451 calls)

     Called by *egterg:
     cdiaghg      :     13.15s CPU     13.46s WALL (   16679 calls)
     h_psi        :     47.10s CPU     48.39s WALL (   16714 calls)
     s_psi        :      8.66s CPU      8.74s WALL (   16714 calls)
     g_psi        :      0.36s CPU      0.37s WALL (   14228 calls)

     Called by h_psi:
     h_psi:calbec :      8.45s CPU      8.76s WALL (   16714 calls)
     vloc_psi     :     29.76s CPU     30.64s WALL (   16714 calls)
     add_vuspsi   :      8.59s CPU      8.69s WALL (   16714 calls)

     General routines
     calbec       :     10.79s CPU     11.18s WALL (   19339 calls)
     fft          :      0.43s CPU      0.46s WALL (     946 calls)
     ffts         :      0.02s CPU      0.02s WALL (     141 calls)
     fftw         :     29.62s CPU     30.50s WALL (  396754 calls)
     interpolate  :      0.05s CPU      0.05s WALL (      71 calls)

     Parallel routines
     fft_scatt_xy :      4.02s CPU      4.14s WALL (  397841 calls)
     fft_scatt_yz :      7.19s CPU      7.42s WALL (  397841 calls)

     PWSCF        :   2m 4.21s CPU   2m 6.67s WALL


   This run was terminated on:  15:52:15   5Jul2026            

=------------------------------------------------------------------------------=
   JOB DONE.
=------------------------------------------------------------------------------=
