
     Program PWSCF v.6.7MaX starts on 16Jul2026 at 12:19: 2 

     This program is part of the open-source Quantum ESPRESSO suite
     for quantum simulation of materials; please cite
         "P. Giannozzi et al., J. Phys.:Condens. Matter 21 395502 (2009);
         "P. Giannozzi et al., J. Phys.:Condens. Matter 29 465901 (2017);
          URL http://www.quantum-espresso.org", 
     in publications or presentations arising from this work. More details at
     http://www.quantum-espresso.org/quote

     Parallel version (MPI), running on     8 processors

     MPI processes distributed on     1 nodes
     R & G space division:  proc/nbgrp/npool/nimage =       8
     Reading input from scf.in

     Current dimensions of program PWSCF are:
     Max number of different atomic species (ntypx) = 10
     Max number of k-points (npk) =  40000
     Max angular momentum in pseudopotentials (lmaxx) =  3
     file Ba.pbesol-spn-kjpaw_psl.1.0.0.UPF: wavefunction(s)  5S 6S renormalized
     file Ti.pbesol-spn-kjpaw_psl.1.0.0.UPF: wavefunction(s)  3S 3P 3D renormalized
     file O.pbesol-n-kjpaw_psl.1.0.0.UPF: wavefunction(s)  2S 2P renormalized

     Subspace diagonalization in iterative solution of the eigenvalue problem:
     one sub-group per band group will be used
     scalapack distributed-memory algorithm (size of sub-group:  2*  2 procs)

     Message from routine setup:
     using ibrav=0 with symmetry is DISCOURAGED, use correct ibrav instead

     Parallelization info
     --------------------
     sticks:   dense  smooth     PW     G-vecs:    dense   smooth      PW
     Min         269     135     40                 9413     3337     546
     Max         271     136     41                 9414     3338     549
     Sum        2161    1085    325                75309    26701    4381



     bravais-lattice index     =            0
     lattice parameter (alat)  =       7.5141  a.u.
     unit-cell volume          =     424.2380 (a.u.)^3
     number of atoms/cell      =            5
     number of atomic types    =            3
     number of electrons       =        40.00
     number of Kohn-Sham states=           20
     kinetic-energy cutoff     =      60.0000  Ry
     charge density cutoff     =     480.0000  Ry
     scf convergence threshold =      1.0E-12
     mixing beta               =       0.3000
     number of iterations used =            8  plain     mixing
     Exchange-correlation= SLA  PW   PSX  PSC
                           (   1   4  10   8   0   0   0)

     celldm(1)=   7.514133  celldm(2)=   0.000000  celldm(3)=   0.000000
     celldm(4)=   0.000000  celldm(5)=   0.000000  celldm(6)=   0.000000

     crystal axes: (cart. coord. in units of alat)
               a(1) = (   0.999988   0.005000   0.000000 )  
               a(2) = (   0.005000   0.999988   0.000000 )  
               a(3) = (   0.000000   0.000000   0.999988 )  

     reciprocal axes: (cart. coord. in units 2 pi/alat)
               b(1) = (  1.000038 -0.005000  0.000000 )  
               b(2) = ( -0.005000  1.000038  0.000000 )  
               b(3) = (  0.000000  0.000000  1.000012 )  


     PseudoPot. # 1 for Ba read from file:
     ./pseudo/Ba.pbesol-spn-kjpaw_psl.1.0.0.UPF
     MD5 check sum: dd46dd63df357211ac98124515369fe1
     Pseudo is Projector augmented-wave + core cor, Zval = 10.0
     Generated using 'atomic' code by A. Dal Corso  v.6.7MaX
     Shape of augmentation charge: PSQ
     Using radial grid of 1251 points,  7 beta functions with: 
                l(1) =   0
                l(2) =   0
                l(3) =   0
                l(4) =   1
                l(5) =   1
                l(6) =   2
                l(7) =   2
     Q(r) pseudized with 0 coefficients 


     PseudoPot. # 2 for Ti read from file:
     ./pseudo/Ti.pbesol-spn-kjpaw_psl.1.0.0.UPF
     MD5 check sum: 37a32a5821746b2d50d64995a8e5b789
     Pseudo is Projector augmented-wave + core cor, Zval = 12.0
     Generated using &quot;atomic&quot; code by A. Dal Corso  v.6.2.2
     Shape of augmentation charge: PSQ
     Using radial grid of 1177 points,  6 beta functions with: 
                l(1) =   0
                l(2) =   0
                l(3) =   1
                l(4) =   1
                l(5) =   2
                l(6) =   2
     Q(r) pseudized with 0 coefficients 


     PseudoPot. # 3 for O  read from file:
     ./pseudo/O.pbesol-n-kjpaw_psl.1.0.0.UPF
     MD5 check sum: cb766521a97cf798d01896eaf7ac9a0a
     Pseudo is Projector augmented-wave + core cor, Zval =  6.0
     Generated using &quot;atomic&quot; code by A. Dal Corso  v.6.3
     Shape of augmentation charge: PSQ
     Using radial grid of 1095 points,  4 beta functions with: 
                l(1) =   0
                l(2) =   0
                l(3) =   1
                l(4) =   1
     Q(r) pseudized with 0 coefficients 


     atomic species   valence    mass     pseudopotential
        Ba            10.00   137.32700     Ba( 1.00)
        Ti            12.00    47.86700     Ti( 1.00)
        O              6.00    15.99900     O ( 1.00)

      8 Sym. Ops., with inversion, found



   Cartesian axes

     site n.     atom                  positions (alat units)
         1           Ba  tau(   1) = (   0.0000000   0.0000000   0.0000000  )
         2           Ti  tau(   2) = (   0.5024937   0.5024937   0.4999938  )
         3           O   tau(   3) = (   0.5024937   0.5024937   0.0000000  )
         4           O   tau(   4) = (   0.4999938   0.0025000   0.4999938  )
         5           O   tau(   5) = (   0.0025000   0.4999938   0.4999938  )

     number of k points=   105

     Number of k-points >= 100: set verbosity='high' to print them.

     Dense  grid:    75309 G-vectors     FFT dimensions: (  54,  54,  54)

     Smooth grid:    26701 G-vectors     FFT dimensions: (  40,  40,  40)

     Estimated max dynamical RAM per process >      58.32 MB

     Estimated total dynamical RAM >     466.54 MB

     Check: negative core charge=   -0.000002

     Initial potential from superposition of free atoms

     starting charge   39.98294, renormalised to   40.00000
     Starting wfcs are   27 randomized atomic wfcs
     Checking if some PAW data can be deallocated... 

     total cpu time spent up to now is        3.2 secs

     Self-consistent Calculation

     iteration #  1     ecut=    60.00 Ry     beta= 0.30
     Davidson diagonalization with overlap
     ethr =  1.00E-02,  avg # of iterations =  1.0

     total cpu time spent up to now is        6.3 secs

     total energy              =    -735.00157314 Ry
     estimated scf accuracy    <       2.28578500 Ry

     iteration #  2     ecut=    60.00 Ry     beta= 0.30
     Davidson diagonalization with overlap
     ethr =  5.71E-03,  avg # of iterations =  2.1

     negative rho (up, down):  2.505E-03 0.000E+00

     total cpu time spent up to now is        9.7 secs

     total energy              =    -735.43709671 Ry
     estimated scf accuracy    <       0.20807231 Ry

     iteration #  3     ecut=    60.00 Ry     beta= 0.30
     Davidson diagonalization with overlap
     c_bands:  2 eigenvalues not converged
     c_bands:  1 eigenvalues not converged
     c_bands:  1 eigenvalues not converged
     c_bands:  2 eigenvalues not converged
     c_bands:  1 eigenvalues not converged
     c_bands:  1 eigenvalues not converged
     c_bands:  2 eigenvalues not converged
     ethr =  5.20E-04,  avg # of iterations = 14.0

     negative rho (up, down):  1.557E-03 0.000E+00

     total cpu time spent up to now is       19.1 secs

     total energy              =    -735.64051793 Ry
     estimated scf accuracy    <       2.47792876 Ry

     iteration #  4     ecut=    60.00 Ry     beta= 0.30
     Davidson diagonalization with overlap
     ethr =  5.20E-04,  avg # of iterations =  5.4

     negative rho (up, down):  7.163E-04 0.000E+00

     total cpu time spent up to now is       23.1 secs

     total energy              =    -735.03063411 Ry
     estimated scf accuracy    <       1.10774889 Ry

     iteration #  5     ecut=    60.00 Ry     beta= 0.30
     Davidson diagonalization with overlap
     ethr =  5.20E-04,  avg # of iterations =  9.6

     negative rho (up, down):  2.894E-03 0.000E+00

     total cpu time spent up to now is       30.7 secs

     total energy              =    -735.89915867 Ry
     estimated scf accuracy    <       1.34500216 Ry

     iteration #  6     ecut=    60.00 Ry     beta= 0.30
     Davidson diagonalization with overlap
     ethr =  5.20E-04,  avg # of iterations =  1.5

     negative rho (up, down):  2.601E-03 0.000E+00

     total cpu time spent up to now is       33.5 secs

     total energy              =    -735.83175419 Ry
     estimated scf accuracy    <       0.93090215 Ry

     iteration #  7     ecut=    60.00 Ry     beta= 0.30
     Davidson diagonalization with overlap
     ethr =  5.20E-04,  avg # of iterations =  2.0

     negative rho (up, down):  1.297E-03 0.000E+00

     total cpu time spent up to now is       36.6 secs

     total energy              =    -735.82772842 Ry
     estimated scf accuracy    <       0.70968793 Ry

     iteration #  8     ecut=    60.00 Ry     beta= 0.30
     Davidson diagonalization with overlap
     ethr =  5.20E-04,  avg # of iterations =  1.2

     total cpu time spent up to now is       39.4 secs

     total energy              =    -735.69599732 Ry
     estimated scf accuracy    <       0.65632302 Ry

     iteration #  9     ecut=    60.00 Ry     beta= 0.30
     Davidson diagonalization with overlap
     ethr =  5.20E-04,  avg # of iterations =  3.1

     total cpu time spent up to now is       42.6 secs

     total energy              =    -735.58829508 Ry
     estimated scf accuracy    <       0.37146014 Ry

     iteration # 10     ecut=    60.00 Ry     beta= 0.30
     Davidson diagonalization with overlap
     ethr =  5.20E-04,  avg # of iterations =  9.0

     total cpu time spent up to now is       48.5 secs

     total energy              =    -735.75785745 Ry
     estimated scf accuracy    <       0.10321827 Ry

     iteration # 11     ecut=    60.00 Ry     beta= 0.30
     Davidson diagonalization with overlap
     ethr =  2.58E-04,  avg # of iterations =  3.0

     total cpu time spent up to now is       51.5 secs

     total energy              =    -735.78747973 Ry
     estimated scf accuracy    <       0.13363957 Ry

     iteration # 12     ecut=    60.00 Ry     beta= 0.30
     Davidson diagonalization with overlap
     ethr =  2.58E-04,  avg # of iterations =  3.8

     total cpu time spent up to now is       55.0 secs

     total energy              =    -735.86699456 Ry
     estimated scf accuracy    <       0.28448464 Ry

     iteration # 13     ecut=    60.00 Ry     beta= 0.30
     Davidson diagonalization with overlap
     c_bands:  2 eigenvalues not converged
     c_bands:  1 eigenvalues not converged
     c_bands:  1 eigenvalues not converged
     c_bands:  1 eigenvalues not converged
     c_bands:  1 eigenvalues not converged
     ethr =  2.58E-04,  avg # of iterations =  9.8

     total cpu time spent up to now is       60.9 secs

     total energy              =    -735.98557815 Ry
     estimated scf accuracy    <       1.86716573 Ry

     iteration # 14     ecut=    60.00 Ry     beta= 0.30
     Davidson diagonalization with overlap
     ethr =  2.58E-04,  avg # of iterations =  2.8

     total cpu time spent up to now is       64.1 secs

     total energy              =    -735.85014911 Ry
     estimated scf accuracy    <       2.06638998 Ry

     iteration # 15     ecut=    60.00 Ry     beta= 0.30
     Davidson diagonalization with overlap
     ethr =  2.58E-04,  avg # of iterations =  1.5

     total cpu time spent up to now is       66.9 secs

     total energy              =    -735.17654075 Ry
     estimated scf accuracy    <       1.80196480 Ry

     iteration # 16     ecut=    60.00 Ry     beta= 0.30
     Davidson diagonalization with overlap
     ethr =  2.58E-04,  avg # of iterations = 12.2

     total cpu time spent up to now is       75.5 secs

     total energy              =    -735.74985183 Ry
     estimated scf accuracy    <       0.29847004 Ry

     iteration # 17     ecut=    60.00 Ry     beta= 0.30
     Davidson diagonalization with overlap
     ethr =  2.58E-04,  avg # of iterations =  1.4

     total cpu time spent up to now is       78.3 secs

     total energy              =    -735.76336483 Ry
     estimated scf accuracy    <       0.19937028 Ry

     iteration # 18     ecut=    60.00 Ry     beta= 0.30
     Davidson diagonalization with overlap
     ethr =  2.58E-04,  avg # of iterations =  1.1

     total cpu time spent up to now is       80.9 secs

     total energy              =    -735.74969467 Ry
     estimated scf accuracy    <       0.22260563 Ry

     iteration # 19     ecut=    60.00 Ry     beta= 0.30
     Davidson diagonalization with overlap
     ethr =  2.58E-04,  avg # of iterations =  1.0

     total cpu time spent up to now is       83.6 secs

     total energy              =    -735.73025365 Ry
     estimated scf accuracy    <       0.19200762 Ry

     iteration # 20     ecut=    60.00 Ry     beta= 0.30
     Davidson diagonalization with overlap
     ethr =  2.58E-04,  avg # of iterations =  1.9

     total cpu time spent up to now is       86.6 secs

     total energy              =    -735.71237366 Ry
     estimated scf accuracy    <       0.12339518 Ry

     iteration # 21     ecut=    60.00 Ry     beta= 0.30
     Davidson diagonalization with overlap
     ethr =  2.58E-04,  avg # of iterations =  2.2

     total cpu time spent up to now is       89.7 secs

     total energy              =    -735.72568935 Ry
     estimated scf accuracy    <       0.07161717 Ry

     iteration # 22     ecut=    60.00 Ry     beta= 0.30
     Davidson diagonalization with overlap
     ethr =  1.79E-04,  avg # of iterations =  1.1

     total cpu time spent up to now is       92.3 secs

     total energy              =    -735.72715875 Ry
     estimated scf accuracy    <       0.07937992 Ry

     iteration # 23     ecut=    60.00 Ry     beta= 0.30
     Davidson diagonalization with overlap
     ethr =  1.79E-04,  avg # of iterations =  1.2

     total cpu time spent up to now is       95.0 secs

     total energy              =    -735.71983000 Ry
     estimated scf accuracy    <       0.07237727 Ry

     iteration # 24     ecut=    60.00 Ry     beta= 0.30
     Davidson diagonalization with overlap
     ethr =  1.79E-04,  avg # of iterations =  1.4

     total cpu time spent up to now is       97.8 secs

     total energy              =    -735.68640989 Ry
     estimated scf accuracy    <       0.05270522 Ry

     iteration # 25     ecut=    60.00 Ry     beta= 0.30
     Davidson diagonalization with overlap
     ethr =  1.32E-04,  avg # of iterations =  9.3

     total cpu time spent up to now is      104.4 secs

     total energy              =    -735.71480836 Ry
     estimated scf accuracy    <       0.15202260 Ry

     iteration # 26     ecut=    60.00 Ry     beta= 0.30
     Davidson diagonalization with overlap
     ethr =  1.32E-04,  avg # of iterations =  1.9

     total cpu time spent up to now is      107.3 secs

     total energy              =    -735.70123958 Ry
     estimated scf accuracy    <       0.07609066 Ry

     iteration # 27     ecut=    60.00 Ry     beta= 0.30
     Davidson diagonalization with overlap
     ethr =  1.32E-04,  avg # of iterations =  6.4

     total cpu time spent up to now is      111.7 secs

     total energy              =    -735.72158738 Ry
     estimated scf accuracy    <       0.00044285 Ry

     iteration # 28     ecut=    60.00 Ry     beta= 0.30
     Davidson diagonalization with overlap
     c_bands:  4 eigenvalues not converged
     c_bands:  2 eigenvalues not converged
     c_bands:  1 eigenvalues not converged
     c_bands:  5 eigenvalues not converged
     c_bands:  1 eigenvalues not converged
     c_bands:  3 eigenvalues not converged
     c_bands:  1 eigenvalues not converged
     c_bands:  3 eigenvalues not converged
     c_bands:  4 eigenvalues not converged
     c_bands:  4 eigenvalues not converged
     ethr =  1.11E-06,  avg # of iterations = 15.1

     total cpu time spent up to now is      121.5 secs

     total energy              =    -735.72627710 Ry
     estimated scf accuracy    <       0.00586122 Ry

     iteration # 29     ecut=    60.00 Ry     beta= 0.30
     Davidson diagonalization with overlap
     ethr =  1.11E-06,  avg # of iterations =  1.4

     total cpu time spent up to now is      124.3 secs

     total energy              =    -735.72528560 Ry
     estimated scf accuracy    <       0.00477600 Ry

     iteration # 30     ecut=    60.00 Ry     beta= 0.30
     Davidson diagonalization with overlap
     ethr =  1.11E-06,  avg # of iterations =  8.1

     total cpu time spent up to now is      130.2 secs

     total energy              =    -735.72573880 Ry
     estimated scf accuracy    <       0.00054717 Ry

     iteration # 31     ecut=    60.00 Ry     beta= 0.30
     Davidson diagonalization with overlap
     ethr =  1.11E-06,  avg # of iterations =  1.3

     total cpu time spent up to now is      133.0 secs

     total energy              =    -735.72563792 Ry
     estimated scf accuracy    <       0.00047666 Ry

     iteration # 32     ecut=    60.00 Ry     beta= 0.30
     Davidson diagonalization with overlap
     ethr =  1.11E-06,  avg # of iterations =  2.3

     total cpu time spent up to now is      136.1 secs

     total energy              =    -735.72563127 Ry
     estimated scf accuracy    <       0.00019478 Ry

     iteration # 33     ecut=    60.00 Ry     beta= 0.30
     Davidson diagonalization with overlap
     ethr =  4.87E-07,  avg # of iterations =  7.5

     total cpu time spent up to now is      141.0 secs

     total energy              =    -735.72572873 Ry
     estimated scf accuracy    <       0.00002091 Ry

     iteration # 34     ecut=    60.00 Ry     beta= 0.30
     Davidson diagonalization with overlap
     ethr =  5.23E-08,  avg # of iterations =  8.1

     total cpu time spent up to now is      146.6 secs

     total energy              =    -735.72574365 Ry
     estimated scf accuracy    <       0.00000793 Ry

     iteration # 35     ecut=    60.00 Ry     beta= 0.30
     Davidson diagonalization with overlap
     ethr =  1.98E-08,  avg # of iterations =  5.2

     total cpu time spent up to now is      150.6 secs

     total energy              =    -735.72574611 Ry
     estimated scf accuracy    <       0.00000083 Ry

     iteration # 36     ecut=    60.00 Ry     beta= 0.30
     Davidson diagonalization with overlap
     ethr =  2.07E-09,  avg # of iterations =  8.1

     total cpu time spent up to now is      156.1 secs

     total energy              =    -735.72574718 Ry
     estimated scf accuracy    <       0.00000079 Ry

     iteration # 37     ecut=    60.00 Ry     beta= 0.30
     Davidson diagonalization with overlap
     ethr =  1.98E-09,  avg # of iterations =  4.0

     total cpu time spent up to now is      159.6 secs

     total energy              =    -735.72574601 Ry
     estimated scf accuracy    <       0.00000195 Ry

     iteration # 38     ecut=    60.00 Ry     beta= 0.30
     Davidson diagonalization with overlap
     ethr =  1.98E-09,  avg # of iterations =  8.3

     total cpu time spent up to now is      165.9 secs

     total energy              =    -735.72574701 Ry
     estimated scf accuracy    <       0.00000119 Ry

     iteration # 39     ecut=    60.00 Ry     beta= 0.30
     Davidson diagonalization with overlap
     ethr =  1.98E-09,  avg # of iterations =  1.4

     total cpu time spent up to now is      168.7 secs

     total energy              =    -735.72574660 Ry
     estimated scf accuracy    <       0.00000118 Ry

     iteration # 40     ecut=    60.00 Ry     beta= 0.30
     Davidson diagonalization with overlap
     ethr =  1.98E-09,  avg # of iterations =  2.5

     total cpu time spent up to now is      171.8 secs

     total energy              =    -735.72574656 Ry
     estimated scf accuracy    <       0.00000039 Ry

     iteration # 41     ecut=    60.00 Ry     beta= 0.30
     Davidson diagonalization with overlap
     ethr =  9.66E-10,  avg # of iterations =  6.3

     total cpu time spent up to now is      176.4 secs

     total energy              =    -735.72574676 Ry
     estimated scf accuracy    <       0.00000003 Ry

     iteration # 42     ecut=    60.00 Ry     beta= 0.30
     Davidson diagonalization with overlap
     ethr =  7.34E-11,  avg # of iterations =  7.5

     total cpu time spent up to now is      181.3 secs

     total energy              =    -735.72574674 Ry
     estimated scf accuracy    <       0.00000006 Ry

     iteration # 43     ecut=    60.00 Ry     beta= 0.30
     Davidson diagonalization with overlap
     ethr =  7.34E-11,  avg # of iterations =  8.8

     total cpu time spent up to now is      187.9 secs

     total energy              =    -735.72574677 Ry
     estimated scf accuracy    <       0.00000006 Ry

     iteration # 44     ecut=    60.00 Ry     beta= 0.30
     Davidson diagonalization with overlap
     ethr =  7.34E-11,  avg # of iterations =  1.0

     total cpu time spent up to now is      190.6 secs

     total energy              =    -735.72574675 Ry
     estimated scf accuracy    <       0.00000004 Ry

     iteration # 45     ecut=    60.00 Ry     beta= 0.30
     Davidson diagonalization with overlap
     ethr =  7.34E-11,  avg # of iterations =  7.9

     total cpu time spent up to now is      196.3 secs

     total energy              =    -735.72574677 Ry
     estimated scf accuracy    <       0.00000002 Ry

     iteration # 46     ecut=    60.00 Ry     beta= 0.30
     Davidson diagonalization with overlap
     ethr =  5.19E-11,  avg # of iterations =  1.9

     total cpu time spent up to now is      199.2 secs

     total energy              =    -735.72574677 Ry
     estimated scf accuracy    <       0.00000002 Ry

     iteration # 47     ecut=    60.00 Ry     beta= 0.30
     Davidson diagonalization with overlap
     ethr =  5.19E-11,  avg # of iterations =  1.1

     total cpu time spent up to now is      201.9 secs

     total energy              =    -735.72574677 Ry
     estimated scf accuracy    <       0.00000002 Ry

     iteration # 48     ecut=    60.00 Ry     beta= 0.30
     Davidson diagonalization with overlap
     ethr =  4.30E-11,  avg # of iterations =  1.1

     total cpu time spent up to now is      204.6 secs

     total energy              =    -735.72574676 Ry
     estimated scf accuracy    <       0.00000002 Ry

     iteration # 49     ecut=    60.00 Ry     beta= 0.30
     Davidson diagonalization with overlap
     ethr =  4.30E-11,  avg # of iterations =  1.4

     total cpu time spent up to now is      207.4 secs

     total energy              =    -735.72574676 Ry
     estimated scf accuracy    <          9.7E-09 Ry

     iteration # 50     ecut=    60.00 Ry     beta= 0.30
     Davidson diagonalization with overlap
     ethr =  2.44E-11,  avg # of iterations =  6.2

     total cpu time spent up to now is      211.7 secs

     total energy              =    -735.72574676 Ry
     estimated scf accuracy    <          1.1E-10 Ry

     iteration # 51     ecut=    60.00 Ry     beta= 0.30
     Davidson diagonalization with overlap
     c_bands:  2 eigenvalues not converged
     c_bands:  1 eigenvalues not converged
     c_bands:  3 eigenvalues not converged
     c_bands:  4 eigenvalues not converged
     c_bands:  3 eigenvalues not converged
     c_bands:  2 eigenvalues not converged
     c_bands:  1 eigenvalues not converged
     c_bands:  1 eigenvalues not converged
     c_bands:  5 eigenvalues not converged
     c_bands:  1 eigenvalues not converged
     c_bands:  1 eigenvalues not converged
     c_bands:  2 eigenvalues not converged
     c_bands:  1 eigenvalues not converged
     c_bands:  4 eigenvalues not converged
     c_bands:  5 eigenvalues not converged
     c_bands:  1 eigenvalues not converged
     c_bands:  5 eigenvalues not converged
     c_bands:  3 eigenvalues not converged
     c_bands:  4 eigenvalues not converged
     c_bands:  4 eigenvalues not converged
     c_bands:  3 eigenvalues not converged
     c_bands:  3 eigenvalues not converged
     c_bands:  1 eigenvalues not converged
     c_bands:  1 eigenvalues not converged
     c_bands:  2 eigenvalues not converged
     c_bands:  3 eigenvalues not converged
     c_bands:  2 eigenvalues not converged
     c_bands:  1 eigenvalues not converged
     ethr =  2.68E-13,  avg # of iterations = 17.5

     total cpu time spent up to now is      224.4 secs

     total energy              =    -735.72574677 Ry
     estimated scf accuracy    <       0.00000001 Ry

     iteration # 52     ecut=    60.00 Ry     beta= 0.30
     Davidson diagonalization with overlap
     ethr =  2.68E-13,  avg # of iterations =  8.8

     total cpu time spent up to now is      231.0 secs

     total energy              =    -735.72574677 Ry
     estimated scf accuracy    <          6.8E-09 Ry

     iteration # 53     ecut=    60.00 Ry     beta= 0.30
     Davidson diagonalization with overlap
     ethr =  2.68E-13,  avg # of iterations =  1.6

     total cpu time spent up to now is      233.9 secs

     total energy              =    -735.72574676 Ry
     estimated scf accuracy    <          7.4E-09 Ry

     iteration # 54     ecut=    60.00 Ry     beta= 0.30
     Davidson diagonalization with overlap
     c_bands:  1 eigenvalues not converged
     ethr =  2.68E-13,  avg # of iterations = 14.3

     total cpu time spent up to now is      243.7 secs

     total energy              =    -735.72574676 Ry
     estimated scf accuracy    <          2.3E-10 Ry

     iteration # 55     ecut=    60.00 Ry     beta= 0.30
     Davidson diagonalization with overlap
     ethr =  2.68E-13,  avg # of iterations =  1.8

     total cpu time spent up to now is      246.6 secs

     total energy              =    -735.72574676 Ry
     estimated scf accuracy    <          1.9E-10 Ry

     iteration # 56     ecut=    60.00 Ry     beta= 0.30
     Davidson diagonalization with overlap
     ethr =  2.68E-13,  avg # of iterations =  4.6

     total cpu time spent up to now is      250.2 secs

     total energy              =    -735.72574676 Ry
     estimated scf accuracy    <          4.3E-11 Ry

     iteration # 57     ecut=    60.00 Ry     beta= 0.30
     Davidson diagonalization with overlap
     ethr =  1.08E-13,  avg # of iterations =  6.9

     total cpu time spent up to now is      254.7 secs

     End of self-consistent calculation

     Number of k-points >= 100: set verbosity='high' to print the bands.

     highest occupied level (ev):    10.5256

!    total energy              =    -735.72574676 Ry

     total all-electron energy =    -18421.418982 Ry
     estimated scf accuracy    <          4.6E-13 Ry

     The total energy is the sum of the following terms:
     one-electron contribution =     -65.54420974 Ry
     hartree contribution      =      59.10172942 Ry
     xc contribution           =     -60.86204934 Ry
     ewald contribution        =    -208.70020054 Ry
     one-center paw contrib.   =    -459.72101656 Ry

     convergence has been achieved in  57 iterations

     Forces acting on atoms (cartesian axes, Ry/au):

     atom    1 type  1   force =     0.00000000    0.00000000    0.00000000
     atom    2 type  2   force =     0.00000000    0.00000000    0.00000000
     atom    3 type  3   force =     0.00000000    0.00000000    0.00000000
     atom    4 type  3   force =     0.00000000    0.00000000    0.00000000
     atom    5 type  3   force =     0.00000000    0.00000000    0.00000000

     Total force =     0.000000     Total SCF correction =     0.000000


     Computing stress (Cartesian axis) and pressure

          total   stress  (Ry/bohr**3)                   (kbar)     P=        0.10
   0.00000084  -0.00008590   0.00000000            0.12      -12.64        0.00
  -0.00008590   0.00000084   0.00000000          -12.64        0.12        0.00
   0.00000000   0.00000000   0.00000035            0.00        0.00        0.05


     Writing output data file ./tmp/BaTiO3_pbesol_shear_xy_p005.save/

     init_run     :      2.76s CPU      2.82s WALL (       1 calls)
     electrons    :    246.80s CPU    251.41s WALL (       1 calls)
     forces       :      0.88s CPU      0.89s WALL (       1 calls)
     stress       :      1.95s CPU      1.95s WALL (       1 calls)

     Called by init_run:
     wfcinit      :      1.87s CPU      1.89s WALL (       1 calls)
     potinit      :      0.29s CPU      0.31s WALL (       1 calls)
     hinit0       :      0.44s CPU      0.45s WALL (       1 calls)

     Called by electrons:
     c_bands      :    215.08s CPU    219.11s WALL (      57 calls)
     sum_band     :     21.61s CPU     22.11s WALL (      57 calls)
     v_of_rho     :      0.54s CPU      0.56s WALL (      58 calls)
     newd         :      3.33s CPU      3.36s WALL (      58 calls)
     PAW_pot      :      6.26s CPU      6.32s WALL (      58 calls)
     mix_rho      :      0.11s CPU      0.11s WALL (      57 calls)

     Called by c_bands:
     init_us_2    :      2.54s CPU      2.58s WALL (   12285 calls)
     cegterg      :    207.22s CPU    211.16s WALL (    5990 calls)

     Called by *egterg:
     cdiaghg      :     27.10s CPU     27.71s WALL (   35663 calls)
     h_psi        :    102.82s CPU    105.46s WALL (   35768 calls)
     s_psi        :     19.25s CPU     19.39s WALL (   35768 calls)
     g_psi        :      0.75s CPU      0.76s WALL (   29673 calls)

     Called by h_psi:
     h_psi:calbec :     18.61s CPU     19.18s WALL (   35768 calls)
     vloc_psi     :     64.51s CPU     66.39s WALL (   35768 calls)
     add_vuspsi   :     19.08s CPU     19.26s WALL (   35768 calls)

     General routines
     calbec       :     24.71s CPU     25.48s WALL (   42278 calls)
     fft          :      0.36s CPU      0.38s WALL (     777 calls)
     ffts         :      0.02s CPU      0.02s WALL (     115 calls)
     fftw         :     65.47s CPU     67.37s WALL (  865012 calls)
     interpolate  :      0.04s CPU      0.04s WALL (      58 calls)

     Parallel routines
     fft_scatt_xy :      8.68s CPU      8.93s WALL (  865904 calls)
     fft_scatt_yz :     16.09s CPU     16.57s WALL (  865904 calls)

     PWSCF        :   4m12.90s CPU   4m17.68s WALL


   This run was terminated on:  12:23:20  16Jul2026            

=------------------------------------------------------------------------------=
   JOB DONE.
=------------------------------------------------------------------------------=
