
     Program PWSCF v.6.7MaX starts on 22Jul2026 at 16:46:39 

     This program is part of the open-source Quantum ESPRESSO suite
     for quantum simulation of materials; please cite
         "P. Giannozzi et al., J. Phys.:Condens. Matter 21 395502 (2009);
         "P. Giannozzi et al., J. Phys.:Condens. Matter 29 465901 (2017);
          URL http://www.quantum-espresso.org", 
     in publications or presentations arising from this work. More details at
     http://www.quantum-espresso.org/quote

     Parallel version (MPI), running on     8 processors

     MPI processes distributed on     1 nodes
     R & G space division:  proc/nbgrp/npool/nimage =       8
     Reading input from scf.in

     Current dimensions of program PWSCF are:
     Max number of different atomic species (ntypx) = 10
     Max number of k-points (npk) =  40000
     Max angular momentum in pseudopotentials (lmaxx) =  3
     file Ba.pbesol-spn-kjpaw_psl.1.0.0.UPF: wavefunction(s)  5S 6S renormalized
     file Ti.pbesol-spn-kjpaw_psl.1.0.0.UPF: wavefunction(s)  3S 3P 3D renormalized
     file O.pbesol-n-kjpaw_psl.1.0.0.UPF: wavefunction(s)  2S 2P renormalized

     Subspace diagonalization in iterative solution of the eigenvalue problem:
     one sub-group per band group will be used
     scalapack distributed-memory algorithm (size of sub-group:  2*  2 procs)

     Message from routine setup:
     using ibrav=0 with symmetry is DISCOURAGED, use correct ibrav instead

     Parallelization info
     --------------------
     sticks:   dense  smooth     PW     G-vecs:    dense   smooth      PW
     Min         273     136     40                 9585     3383     546
     Max         274     138     41                 9588     3386     549
     Sum        2185    1093    325                76693    27081    4385



     bravais-lattice index     =            0
     lattice parameter (alat)  =       7.5516  a.u.
     unit-cell volume          =     430.6442 (a.u.)^3
     number of atoms/cell      =            5
     number of atomic types    =            3
     number of electrons       =        40.00
     number of Kohn-Sham states=           20
     kinetic-energy cutoff     =      60.0000  Ry
     charge density cutoff     =     480.0000  Ry
     scf convergence threshold =      1.0E-12
     mixing beta               =       0.3000
     number of iterations used =            8  plain     mixing
     Exchange-correlation= SLA  PW   PSX  PSC
                           (   1   4  10   8   0   0   0)

     celldm(1)=   7.551610  celldm(2)=   0.000000  celldm(3)=   0.000000
     celldm(4)=   0.000000  celldm(5)=   0.000000  celldm(6)=   0.000000

     crystal axes: (cart. coord. in units of alat)
               a(1) = (   1.000000   0.000000   0.000000 )  
               a(2) = (   0.000000   1.000000   0.000000 )  
               a(3) = (   0.000000   0.000000   1.000000 )  

     reciprocal axes: (cart. coord. in units 2 pi/alat)
               b(1) = (  1.000000  0.000000  0.000000 )  
               b(2) = (  0.000000  1.000000  0.000000 )  
               b(3) = (  0.000000  0.000000  1.000000 )  


     PseudoPot. # 1 for Ba read from file:
     ./pseudo/Ba.pbesol-spn-kjpaw_psl.1.0.0.UPF
     MD5 check sum: dd46dd63df357211ac98124515369fe1
     Pseudo is Projector augmented-wave + core cor, Zval = 10.0
     Generated using 'atomic' code by A. Dal Corso  v.6.7MaX
     Shape of augmentation charge: PSQ
     Using radial grid of 1251 points,  7 beta functions with: 
                l(1) =   0
                l(2) =   0
                l(3) =   0
                l(4) =   1
                l(5) =   1
                l(6) =   2
                l(7) =   2
     Q(r) pseudized with 0 coefficients 


     PseudoPot. # 2 for Ti read from file:
     ./pseudo/Ti.pbesol-spn-kjpaw_psl.1.0.0.UPF
     MD5 check sum: 37a32a5821746b2d50d64995a8e5b789
     Pseudo is Projector augmented-wave + core cor, Zval = 12.0
     Generated using &quot;atomic&quot; code by A. Dal Corso  v.6.2.2
     Shape of augmentation charge: PSQ
     Using radial grid of 1177 points,  6 beta functions with: 
                l(1) =   0
                l(2) =   0
                l(3) =   1
                l(4) =   1
                l(5) =   2
                l(6) =   2
     Q(r) pseudized with 0 coefficients 


     PseudoPot. # 3 for O  read from file:
     ./pseudo/O.pbesol-n-kjpaw_psl.1.0.0.UPF
     MD5 check sum: cb766521a97cf798d01896eaf7ac9a0a
     Pseudo is Projector augmented-wave + core cor, Zval =  6.0
     Generated using &quot;atomic&quot; code by A. Dal Corso  v.6.3
     Shape of augmentation charge: PSQ
     Using radial grid of 1095 points,  4 beta functions with: 
                l(1) =   0
                l(2) =   0
                l(3) =   1
                l(4) =   1
     Q(r) pseudized with 0 coefficients 


     atomic species   valence    mass     pseudopotential
        Ba            10.00   137.32700     Ba( 1.00)
        Ti            12.00    47.86700     Ti( 1.00)
        O              6.00    15.99900     O ( 1.00)

     48 Sym. Ops., with inversion, found



   Cartesian axes

     site n.     atom                  positions (alat units)
         1           Ba  tau(   1) = (   0.0000000   0.0000000   0.0000000  )
         2           Ti  tau(   2) = (   0.5000000   0.5000000   0.5000000  )
         3           O   tau(   3) = (   0.5000000   0.5000000   0.0000000  )
         4           O   tau(   4) = (   0.5000000   0.0000000   0.5000000  )
         5           O   tau(   5) = (   0.0000000   0.5000000   0.5000000  )

     number of k points=    35
                       cart. coord. in units 2pi/alat
        k(    1) = (   0.0000000   0.0000000   0.0000000), wk =   0.0039062
        k(    2) = (   0.0000000   0.0000000   0.1250000), wk =   0.0234375
        k(    3) = (   0.0000000   0.0000000   0.2500000), wk =   0.0234375
        k(    4) = (   0.0000000   0.0000000   0.3750000), wk =   0.0234375
        k(    5) = (   0.0000000   0.0000000  -0.5000000), wk =   0.0117188
        k(    6) = (   0.0000000   0.1250000   0.1250000), wk =   0.0468750
        k(    7) = (   0.0000000   0.1250000   0.2500000), wk =   0.0937500
        k(    8) = (   0.0000000   0.1250000   0.3750000), wk =   0.0937500
        k(    9) = (   0.0000000   0.1250000  -0.5000000), wk =   0.0468750
        k(   10) = (   0.0000000   0.2500000   0.2500000), wk =   0.0468750
        k(   11) = (   0.0000000   0.2500000   0.3750000), wk =   0.0937500
        k(   12) = (   0.0000000   0.2500000  -0.5000000), wk =   0.0468750
        k(   13) = (   0.0000000   0.3750000   0.3750000), wk =   0.0468750
        k(   14) = (   0.0000000   0.3750000  -0.5000000), wk =   0.0468750
        k(   15) = (   0.0000000  -0.5000000  -0.5000000), wk =   0.0117188
        k(   16) = (   0.1250000   0.1250000   0.1250000), wk =   0.0312500
        k(   17) = (   0.1250000   0.1250000   0.2500000), wk =   0.0937500
        k(   18) = (   0.1250000   0.1250000   0.3750000), wk =   0.0937500
        k(   19) = (   0.1250000   0.1250000  -0.5000000), wk =   0.0468750
        k(   20) = (   0.1250000   0.2500000   0.2500000), wk =   0.0937500
        k(   21) = (   0.1250000   0.2500000   0.3750000), wk =   0.1875000
        k(   22) = (   0.1250000   0.2500000  -0.5000000), wk =   0.0937500
        k(   23) = (   0.1250000   0.3750000   0.3750000), wk =   0.0937500
        k(   24) = (   0.1250000   0.3750000  -0.5000000), wk =   0.0937500
        k(   25) = (   0.1250000  -0.5000000  -0.5000000), wk =   0.0234375
        k(   26) = (   0.2500000   0.2500000   0.2500000), wk =   0.0312500
        k(   27) = (   0.2500000   0.2500000   0.3750000), wk =   0.0937500
        k(   28) = (   0.2500000   0.2500000  -0.5000000), wk =   0.0468750
        k(   29) = (   0.2500000   0.3750000   0.3750000), wk =   0.0937500
        k(   30) = (   0.2500000   0.3750000  -0.5000000), wk =   0.0937500
        k(   31) = (   0.2500000  -0.5000000  -0.5000000), wk =   0.0234375
        k(   32) = (   0.3750000   0.3750000   0.3750000), wk =   0.0312500
        k(   33) = (   0.3750000   0.3750000  -0.5000000), wk =   0.0468750
        k(   34) = (   0.3750000  -0.5000000  -0.5000000), wk =   0.0234375
        k(   35) = (  -0.5000000  -0.5000000  -0.5000000), wk =   0.0039062

     Dense  grid:    76693 G-vectors     FFT dimensions: (  54,  54,  54)

     Smooth grid:    27081 G-vectors     FFT dimensions: (  40,  40,  40)

     Estimated max dynamical RAM per process >      50.17 MB

     Estimated total dynamical RAM >     401.34 MB

     Check: negative core charge=   -0.000002

     Initial potential from superposition of free atoms

     starting charge   39.98294, renormalised to   40.00000
     Starting wfcs are   27 randomized atomic wfcs
     Checking if some PAW data can be deallocated... 

     total cpu time spent up to now is        1.4 secs

     Self-consistent Calculation

     iteration #  1     ecut=    60.00 Ry     beta= 0.30
     Davidson diagonalization with overlap
     ethr =  1.00E-02,  avg # of iterations =  1.0

     total cpu time spent up to now is        2.3 secs

     total energy              =    -734.99384698 Ry
     estimated scf accuracy    <       2.29196985 Ry

     iteration #  2     ecut=    60.00 Ry     beta= 0.30
     Davidson diagonalization with overlap
     ethr =  5.73E-03,  avg # of iterations =  2.2

     total cpu time spent up to now is        3.6 secs

     total energy              =    -735.43677867 Ry
     estimated scf accuracy    <       0.20258693 Ry

     iteration #  3     ecut=    60.00 Ry     beta= 0.30
     Davidson diagonalization with overlap
     c_bands:  1 eigenvalues not converged
     c_bands:  2 eigenvalues not converged
     ethr =  5.06E-04,  avg # of iterations = 14.0

     total cpu time spent up to now is        6.7 secs

     total energy              =    -735.63038590 Ry
     estimated scf accuracy    <       2.69495210 Ry

     iteration #  4     ecut=    60.00 Ry     beta= 0.30
     Davidson diagonalization with overlap
     ethr =  5.06E-04,  avg # of iterations =  6.6

     total cpu time spent up to now is        8.3 secs

     total energy              =    -735.17594828 Ry
     estimated scf accuracy    <       0.89780587 Ry

     iteration #  5     ecut=    60.00 Ry     beta= 0.30
     Davidson diagonalization with overlap
     ethr =  5.06E-04,  avg # of iterations =  8.9

     total cpu time spent up to now is       10.8 secs

     total energy              =    -735.82929615 Ry
     estimated scf accuracy    <       1.07072442 Ry

     iteration #  6     ecut=    60.00 Ry     beta= 0.30
     Davidson diagonalization with overlap
     ethr =  5.06E-04,  avg # of iterations =  1.7

     total cpu time spent up to now is       11.8 secs

     total energy              =    -735.73414204 Ry
     estimated scf accuracy    <       0.69092945 Ry

     iteration #  7     ecut=    60.00 Ry     beta= 0.30
     Davidson diagonalization with overlap
     ethr =  5.06E-04,  avg # of iterations =  3.4

     total cpu time spent up to now is       13.1 secs

     total energy              =    -735.76382180 Ry
     estimated scf accuracy    <       0.36723091 Ry

     iteration #  8     ecut=    60.00 Ry     beta= 0.30
     Davidson diagonalization with overlap
     ethr =  5.06E-04,  avg # of iterations =  1.3

     total cpu time spent up to now is       14.2 secs

     total energy              =    -735.71841798 Ry
     estimated scf accuracy    <       0.35294671 Ry

     iteration #  9     ecut=    60.00 Ry     beta= 0.30
     Davidson diagonalization with overlap
     ethr =  5.06E-04,  avg # of iterations =  1.6

     total cpu time spent up to now is       15.2 secs

     total energy              =    -735.68670626 Ry
     estimated scf accuracy    <       0.24663359 Ry

     iteration # 10     ecut=    60.00 Ry     beta= 0.30
     Davidson diagonalization with overlap
     ethr =  5.06E-04,  avg # of iterations =  1.8

     total cpu time spent up to now is       16.3 secs

     total energy              =    -735.58884025 Ry
     estimated scf accuracy    <       0.16298460 Ry

     iteration # 11     ecut=    60.00 Ry     beta= 0.30
     Davidson diagonalization with overlap
     ethr =  4.07E-04,  avg # of iterations = 11.6

     total cpu time spent up to now is       18.8 secs

     total energy              =    -735.57437570 Ry
     estimated scf accuracy    <       0.97833500 Ry

     iteration # 12     ecut=    60.00 Ry     beta= 0.30
     Davidson diagonalization with overlap
     ethr =  4.07E-04,  avg # of iterations =  8.7

     total cpu time spent up to now is       20.9 secs

     total energy              =    -735.71400313 Ry
     estimated scf accuracy    <       0.00562680 Ry

     iteration # 13     ecut=    60.00 Ry     beta= 0.30
     Davidson diagonalization with overlap
     ethr =  1.41E-05,  avg # of iterations =  9.7

     total cpu time spent up to now is       23.0 secs

     total energy              =    -735.72208296 Ry
     estimated scf accuracy    <       0.00538645 Ry

     iteration # 14     ecut=    60.00 Ry     beta= 0.30
     Davidson diagonalization with overlap
     ethr =  1.35E-05,  avg # of iterations = 10.0

     total cpu time spent up to now is       25.5 secs

     total energy              =    -735.73420461 Ry
     estimated scf accuracy    <       0.03633409 Ry

     iteration # 15     ecut=    60.00 Ry     beta= 0.30
     Davidson diagonalization with overlap
     ethr =  1.35E-05,  avg # of iterations =  1.7

     total cpu time spent up to now is       26.6 secs

     total energy              =    -735.73531836 Ry
     estimated scf accuracy    <       0.03728972 Ry

     iteration # 16     ecut=    60.00 Ry     beta= 0.30
     Davidson diagonalization with overlap
     ethr =  1.35E-05,  avg # of iterations =  1.8

     total cpu time spent up to now is       27.7 secs

     total energy              =    -735.75127869 Ry
     estimated scf accuracy    <       0.04009809 Ry

     iteration # 17     ecut=    60.00 Ry     beta= 0.30
     Davidson diagonalization with overlap
     ethr =  1.35E-05,  avg # of iterations = 12.2

     total cpu time spent up to now is       30.6 secs

     total energy              =    -735.69912279 Ry
     estimated scf accuracy    <       0.24325067 Ry

     iteration # 18     ecut=    60.00 Ry     beta= 0.30
     Davidson diagonalization with overlap
     ethr =  1.35E-05,  avg # of iterations = 11.9

     total cpu time spent up to now is       33.4 secs

     total energy              =    -735.72984968 Ry
     estimated scf accuracy    <       0.00721664 Ry

     iteration # 19     ecut=    60.00 Ry     beta= 0.30
     Davidson diagonalization with overlap
     ethr =  1.35E-05,  avg # of iterations =  1.8

     total cpu time spent up to now is       34.5 secs

     total energy              =    -735.73249248 Ry
     estimated scf accuracy    <       0.01230701 Ry

     iteration # 20     ecut=    60.00 Ry     beta= 0.30
     Davidson diagonalization with overlap
     ethr =  1.35E-05,  avg # of iterations =  3.2

     total cpu time spent up to now is       35.8 secs

     total energy              =    -735.72403255 Ry
     estimated scf accuracy    <       0.01911527 Ry

     iteration # 21     ecut=    60.00 Ry     beta= 0.30
     Davidson diagonalization with overlap
     ethr =  1.35E-05,  avg # of iterations =  5.4

     total cpu time spent up to now is       37.3 secs

     total energy              =    -735.72568542 Ry
     estimated scf accuracy    <       0.00347963 Ry

     iteration # 22     ecut=    60.00 Ry     beta= 0.30
     Davidson diagonalization with overlap
     ethr =  8.70E-06,  avg # of iterations =  1.9

     total cpu time spent up to now is       38.4 secs

     total energy              =    -735.72654345 Ry
     estimated scf accuracy    <       0.00293328 Ry

     iteration # 23     ecut=    60.00 Ry     beta= 0.30
     Davidson diagonalization with overlap
     ethr =  7.33E-06,  avg # of iterations =  7.3

     total cpu time spent up to now is       40.2 secs

     total energy              =    -735.72896693 Ry
     estimated scf accuracy    <       0.00985524 Ry

     iteration # 24     ecut=    60.00 Ry     beta= 0.30
     Davidson diagonalization with overlap
     ethr =  7.33E-06,  avg # of iterations =  3.6

     total cpu time spent up to now is       41.5 secs

     total energy              =    -735.72871833 Ry
     estimated scf accuracy    <       0.01421928 Ry

     iteration # 25     ecut=    60.00 Ry     beta= 0.30
     Davidson diagonalization with overlap
     ethr =  7.33E-06,  avg # of iterations =  1.3

     total cpu time spent up to now is       42.5 secs

     total energy              =    -735.73067127 Ry
     estimated scf accuracy    <       0.01410323 Ry

     iteration # 26     ecut=    60.00 Ry     beta= 0.30
     Davidson diagonalization with overlap
     ethr =  7.33E-06,  avg # of iterations =  2.8

     total cpu time spent up to now is       43.7 secs

     total energy              =    -735.72826753 Ry
     estimated scf accuracy    <       0.01957215 Ry

     iteration # 27     ecut=    60.00 Ry     beta= 0.30
     Davidson diagonalization with overlap
     ethr =  7.33E-06,  avg # of iterations =  1.5

     total cpu time spent up to now is       44.7 secs

     total energy              =    -735.72893406 Ry
     estimated scf accuracy    <       0.01633614 Ry

     iteration # 28     ecut=    60.00 Ry     beta= 0.30
     Davidson diagonalization with overlap
     ethr =  7.33E-06,  avg # of iterations =  1.0

     total cpu time spent up to now is       45.7 secs

     total energy              =    -735.73054030 Ry
     estimated scf accuracy    <       0.01759543 Ry

     iteration # 29     ecut=    60.00 Ry     beta= 0.30
     Davidson diagonalization with overlap
     ethr =  7.33E-06,  avg # of iterations =  1.7

     total cpu time spent up to now is       46.8 secs

     total energy              =    -735.72764891 Ry
     estimated scf accuracy    <       0.02148907 Ry

     iteration # 30     ecut=    60.00 Ry     beta= 0.30
     Davidson diagonalization with overlap
     ethr =  7.33E-06,  avg # of iterations =  1.1

     total cpu time spent up to now is       47.8 secs

     total energy              =    -735.72302298 Ry
     estimated scf accuracy    <       0.01668017 Ry

     iteration # 31     ecut=    60.00 Ry     beta= 0.30
     Davidson diagonalization with overlap
     ethr =  7.33E-06,  avg # of iterations =  7.3

     total cpu time spent up to now is       49.6 secs

     total energy              =    -735.72641335 Ry
     estimated scf accuracy    <       0.00082139 Ry

     iteration # 32     ecut=    60.00 Ry     beta= 0.30
     Davidson diagonalization with overlap
     ethr =  2.05E-06,  avg # of iterations =  8.0

     total cpu time spent up to now is       51.7 secs

     total energy              =    -735.72416981 Ry
     estimated scf accuracy    <       0.00795501 Ry

     iteration # 33     ecut=    60.00 Ry     beta= 0.30
     Davidson diagonalization with overlap
     ethr =  2.05E-06,  avg # of iterations =  9.3

     total cpu time spent up to now is       53.9 secs

     total energy              =    -735.72548939 Ry
     estimated scf accuracy    <       0.00008866 Ry

     iteration # 34     ecut=    60.00 Ry     beta= 0.30
     Davidson diagonalization with overlap
     ethr =  2.22E-07,  avg # of iterations =  7.2

     total cpu time spent up to now is       55.8 secs

     total energy              =    -735.72551983 Ry
     estimated scf accuracy    <       0.00003191 Ry

     iteration # 35     ecut=    60.00 Ry     beta= 0.30
     Davidson diagonalization with overlap
     ethr =  7.98E-08,  avg # of iterations = 11.1

     total cpu time spent up to now is       58.3 secs

     total energy              =    -735.72548007 Ry
     estimated scf accuracy    <       0.00032473 Ry

     iteration # 36     ecut=    60.00 Ry     beta= 0.30
     Davidson diagonalization with overlap
     ethr =  7.98E-08,  avg # of iterations = 10.0

     total cpu time spent up to now is       60.7 secs

     total energy              =    -735.72554965 Ry
     estimated scf accuracy    <       0.00001145 Ry

     iteration # 37     ecut=    60.00 Ry     beta= 0.30
     Davidson diagonalization with overlap
     ethr =  2.86E-08,  avg # of iterations =  7.5

     total cpu time spent up to now is       62.6 secs

     total energy              =    -735.72554308 Ry
     estimated scf accuracy    <       0.00004429 Ry

     iteration # 38     ecut=    60.00 Ry     beta= 0.30
     Davidson diagonalization with overlap
     ethr =  2.86E-08,  avg # of iterations =  4.7

     total cpu time spent up to now is       64.0 secs

     total energy              =    -735.72555683 Ry
     estimated scf accuracy    <       0.00001153 Ry

     iteration # 39     ecut=    60.00 Ry     beta= 0.30
     Davidson diagonalization with overlap
     ethr =  2.86E-08,  avg # of iterations =  4.1

     total cpu time spent up to now is       65.3 secs

     total energy              =    -735.72554181 Ry
     estimated scf accuracy    <       0.00003933 Ry

     iteration # 40     ecut=    60.00 Ry     beta= 0.30
     Davidson diagonalization with overlap
     ethr =  2.86E-08,  avg # of iterations =  7.3

     total cpu time spent up to now is       67.1 secs

     total energy              =    -735.72554666 Ry
     estimated scf accuracy    <       0.00000094 Ry

     iteration # 41     ecut=    60.00 Ry     beta= 0.30
     Davidson diagonalization with overlap
     c_bands:  4 eigenvalues not converged
     c_bands:  1 eigenvalues not converged
     c_bands:  1 eigenvalues not converged
     ethr =  2.35E-09,  avg # of iterations = 14.6

     total cpu time spent up to now is       70.5 secs

     total energy              =    -735.72554677 Ry
     estimated scf accuracy    <       0.00003358 Ry

     iteration # 42     ecut=    60.00 Ry     beta= 0.30
     Davidson diagonalization with overlap
     ethr =  2.35E-09,  avg # of iterations =  9.5

     total cpu time spent up to now is       72.9 secs

     total energy              =    -735.72554835 Ry
     estimated scf accuracy    <       0.00000587 Ry

     iteration # 43     ecut=    60.00 Ry     beta= 0.30
     Davidson diagonalization with overlap
     ethr =  2.35E-09,  avg # of iterations =  5.3

     total cpu time spent up to now is       74.4 secs

     total energy              =    -735.72554872 Ry
     estimated scf accuracy    <       0.00000237 Ry

     iteration # 44     ecut=    60.00 Ry     beta= 0.30
     Davidson diagonalization with overlap
     ethr =  2.35E-09,  avg # of iterations =  1.8

     total cpu time spent up to now is       75.4 secs

     total energy              =    -735.72554857 Ry
     estimated scf accuracy    <       0.00000216 Ry

     iteration # 45     ecut=    60.00 Ry     beta= 0.30
     Davidson diagonalization with overlap
     ethr =  2.35E-09,  avg # of iterations =  1.8

     total cpu time spent up to now is       76.5 secs

     total energy              =    -735.72554837 Ry
     estimated scf accuracy    <       0.00000158 Ry

     iteration # 46     ecut=    60.00 Ry     beta= 0.30
     Davidson diagonalization with overlap
     ethr =  2.35E-09,  avg # of iterations =  4.7

     total cpu time spent up to now is       77.9 secs

     total energy              =    -735.72554853 Ry
     estimated scf accuracy    <       0.00000037 Ry

     iteration # 47     ecut=    60.00 Ry     beta= 0.30
     Davidson diagonalization with overlap
     ethr =  9.25E-10,  avg # of iterations =  5.6

     total cpu time spent up to now is       79.3 secs

     total energy              =    -735.72554864 Ry
     estimated scf accuracy    <       0.00000004 Ry

     iteration # 48     ecut=    60.00 Ry     beta= 0.30
     Davidson diagonalization with overlap
     ethr =  1.06E-10,  avg # of iterations =  8.1

     total cpu time spent up to now is       81.2 secs

     total energy              =    -735.72554874 Ry
     estimated scf accuracy    <       0.00000004 Ry

     iteration # 49     ecut=    60.00 Ry     beta= 0.30
     Davidson diagonalization with overlap
     ethr =  9.48E-11,  avg # of iterations =  7.8

     total cpu time spent up to now is       83.1 secs

     total energy              =    -735.72554880 Ry
     estimated scf accuracy    <       0.00000028 Ry

     iteration # 50     ecut=    60.00 Ry     beta= 0.30
     Davidson diagonalization with overlap
     ethr =  9.48E-11,  avg # of iterations =  5.2

     total cpu time spent up to now is       84.5 secs

     total energy              =    -735.72554882 Ry
     estimated scf accuracy    <       0.00000047 Ry

     iteration # 51     ecut=    60.00 Ry     beta= 0.30
     Davidson diagonalization with overlap
     ethr =  9.48E-11,  avg # of iterations =  2.0

     total cpu time spent up to now is       85.6 secs

     total energy              =    -735.72554879 Ry
     estimated scf accuracy    <       0.00000051 Ry

     iteration # 52     ecut=    60.00 Ry     beta= 0.30
     Davidson diagonalization with overlap
     ethr =  9.48E-11,  avg # of iterations =  1.3

     total cpu time spent up to now is       86.6 secs

     total energy              =    -735.72554879 Ry
     estimated scf accuracy    <       0.00000047 Ry

     iteration # 53     ecut=    60.00 Ry     beta= 0.30
     Davidson diagonalization with overlap
     ethr =  9.48E-11,  avg # of iterations =  1.1

     total cpu time spent up to now is       87.6 secs

     total energy              =    -735.72554879 Ry
     estimated scf accuracy    <       0.00000048 Ry

     iteration # 54     ecut=    60.00 Ry     beta= 0.30
     Davidson diagonalization with overlap
     ethr =  9.48E-11,  avg # of iterations =  1.1

     total cpu time spent up to now is       88.7 secs

     total energy              =    -735.72554877 Ry
     estimated scf accuracy    <       0.00000048 Ry

     iteration # 55     ecut=    60.00 Ry     beta= 0.30
     Davidson diagonalization with overlap
     ethr =  9.48E-11,  avg # of iterations =  1.2

     total cpu time spent up to now is       89.7 secs

     total energy              =    -735.72554877 Ry
     estimated scf accuracy    <       0.00000044 Ry

     iteration # 56     ecut=    60.00 Ry     beta= 0.30
     Davidson diagonalization with overlap
     ethr =  9.48E-11,  avg # of iterations =  1.0

     total cpu time spent up to now is       90.7 secs

     total energy              =    -735.72554875 Ry
     estimated scf accuracy    <       0.00000044 Ry

     iteration # 57     ecut=    60.00 Ry     beta= 0.30
     Davidson diagonalization with overlap
     ethr =  9.48E-11,  avg # of iterations =  2.3

     total cpu time spent up to now is       91.9 secs

     total energy              =    -735.72554865 Ry
     estimated scf accuracy    <       0.00000041 Ry

     iteration # 58     ecut=    60.00 Ry     beta= 0.30
     Davidson diagonalization with overlap
     ethr =  9.48E-11,  avg # of iterations =  8.9

     total cpu time spent up to now is       94.0 secs

     total energy              =    -735.72554868 Ry
     estimated scf accuracy    <       0.00000003 Ry

     iteration # 59     ecut=    60.00 Ry     beta= 0.30
     Davidson diagonalization with overlap
     ethr =  8.25E-11,  avg # of iterations =  5.7

     total cpu time spent up to now is       95.9 secs

     total energy              =    -735.72554870 Ry
     estimated scf accuracy    <       0.00000001 Ry

     iteration # 60     ecut=    60.00 Ry     beta= 0.30
     Davidson diagonalization with overlap
     ethr =  2.98E-11,  avg # of iterations =  8.3

     total cpu time spent up to now is       98.0 secs

     total energy              =    -735.72554870 Ry
     estimated scf accuracy    <       0.00000006 Ry

     iteration # 61     ecut=    60.00 Ry     beta= 0.30
     Davidson diagonalization with overlap
     ethr =  2.98E-11,  avg # of iterations =  1.9

     total cpu time spent up to now is       99.1 secs

     total energy              =    -735.72554868 Ry
     estimated scf accuracy    <       0.00000004 Ry

     iteration # 62     ecut=    60.00 Ry     beta= 0.30
     Davidson diagonalization with overlap
     ethr =  2.98E-11,  avg # of iterations =  9.5

     total cpu time spent up to now is      101.4 secs

     total energy              =    -735.72554869 Ry
     estimated scf accuracy    <       0.00000002 Ry

     iteration # 63     ecut=    60.00 Ry     beta= 0.30
     Davidson diagonalization with overlap
     ethr =  2.98E-11,  avg # of iterations =  8.5

     total cpu time spent up to now is      103.6 secs

     total energy              =    -735.72554870 Ry
     estimated scf accuracy    <       0.00000005 Ry

     iteration # 64     ecut=    60.00 Ry     beta= 0.30
     Davidson diagonalization with overlap
     ethr =  2.98E-11,  avg # of iterations =  1.4

     total cpu time spent up to now is      104.6 secs

     total energy              =    -735.72554869 Ry
     estimated scf accuracy    <       0.00000004 Ry

     iteration # 65     ecut=    60.00 Ry     beta= 0.30
     Davidson diagonalization with overlap
     ethr =  2.98E-11,  avg # of iterations =  5.7

     total cpu time spent up to now is      106.1 secs

     total energy              =    -735.72554870 Ry
     estimated scf accuracy    <          6.5E-09 Ry

     iteration # 66     ecut=    60.00 Ry     beta= 0.30
     Davidson diagonalization with overlap
     ethr =  1.63E-11,  avg # of iterations =  5.1

     total cpu time spent up to now is      107.5 secs

     total energy              =    -735.72554870 Ry
     estimated scf accuracy    <          4.5E-10 Ry

     iteration # 67     ecut=    60.00 Ry     beta= 0.30
     Davidson diagonalization with overlap
     ethr =  1.13E-12,  avg # of iterations = 11.0

     total cpu time spent up to now is      109.8 secs

     total energy              =    -735.72554870 Ry
     estimated scf accuracy    <          9.2E-10 Ry

     iteration # 68     ecut=    60.00 Ry     beta= 0.30
     Davidson diagonalization with overlap
     ethr =  1.13E-12,  avg # of iterations =  2.4

     total cpu time spent up to now is      111.0 secs

     total energy              =    -735.72554870 Ry
     estimated scf accuracy    <          3.2E-10 Ry

     iteration # 69     ecut=    60.00 Ry     beta= 0.30
     Davidson diagonalization with overlap
     c_bands:  1 eigenvalues not converged
     ethr =  8.01E-13,  avg # of iterations = 14.9

     total cpu time spent up to now is      114.5 secs

     total energy              =    -735.72554870 Ry
     estimated scf accuracy    <       0.00000002 Ry

     iteration # 70     ecut=    60.00 Ry     beta= 0.30
     Davidson diagonalization with overlap
     ethr =  8.01E-13,  avg # of iterations = 12.2

     total cpu time spent up to now is      117.6 secs

     total energy              =    -735.72554870 Ry
     estimated scf accuracy    <          3.6E-10 Ry

     iteration # 71     ecut=    60.00 Ry     beta= 0.30
     Davidson diagonalization with overlap
     ethr =  8.01E-13,  avg # of iterations =  1.5

     total cpu time spent up to now is      118.6 secs

     total energy              =    -735.72554870 Ry
     estimated scf accuracy    <          6.8E-10 Ry

     iteration # 72     ecut=    60.00 Ry     beta= 0.30
     Davidson diagonalization with overlap
     ethr =  8.01E-13,  avg # of iterations =  1.6

     total cpu time spent up to now is      119.7 secs

     total energy              =    -735.72554870 Ry
     estimated scf accuracy    <          7.4E-10 Ry

     iteration # 73     ecut=    60.00 Ry     beta= 0.30
     Davidson diagonalization with overlap
     ethr =  8.01E-13,  avg # of iterations =  1.1

     total cpu time spent up to now is      120.7 secs

     total energy              =    -735.72554870 Ry
     estimated scf accuracy    <          6.3E-10 Ry

     iteration # 74     ecut=    60.00 Ry     beta= 0.30
     Davidson diagonalization with overlap
     ethr =  8.01E-13,  avg # of iterations =  1.3

     total cpu time spent up to now is      121.7 secs

     total energy              =    -735.72554870 Ry
     estimated scf accuracy    <          7.5E-10 Ry

     iteration # 75     ecut=    60.00 Ry     beta= 0.30
     Davidson diagonalization with overlap
     ethr =  8.01E-13,  avg # of iterations =  1.0

     total cpu time spent up to now is      122.7 secs

     total energy              =    -735.72554870 Ry
     estimated scf accuracy    <          7.5E-10 Ry

     iteration # 76     ecut=    60.00 Ry     beta= 0.30
     Davidson diagonalization with overlap
     ethr =  8.01E-13,  avg # of iterations =  6.3

     total cpu time spent up to now is      124.3 secs

     total energy              =    -735.72554870 Ry
     estimated scf accuracy    <          2.3E-11 Ry

     iteration # 77     ecut=    60.00 Ry     beta= 0.30
     Davidson diagonalization with overlap
     ethr =  1.00E-13,  avg # of iterations =  7.5

     total cpu time spent up to now is      126.1 secs

     total energy              =    -735.72554870 Ry
     estimated scf accuracy    <          1.4E-12 Ry

     iteration # 78     ecut=    60.00 Ry     beta= 0.30
     Davidson diagonalization with overlap
     ethr =  1.00E-13,  avg # of iterations =  9.2

     total cpu time spent up to now is      128.3 secs

     total energy              =    -735.72554870 Ry
     estimated scf accuracy    <          2.9E-10 Ry

     iteration # 79     ecut=    60.00 Ry     beta= 0.30
     Davidson diagonalization with overlap
     ethr =  1.00E-13,  avg # of iterations =  9.7

     total cpu time spent up to now is      130.6 secs

     total energy              =    -735.72554870 Ry
     estimated scf accuracy    <          4.4E-11 Ry

     iteration # 80     ecut=    60.00 Ry     beta= 0.30
     Davidson diagonalization with overlap
     ethr =  1.00E-13,  avg # of iterations =  2.5

     total cpu time spent up to now is      131.8 secs

     total energy              =    -735.72554870 Ry
     estimated scf accuracy    <          9.8E-12 Ry

     iteration # 81     ecut=    60.00 Ry     beta= 0.30
     Davidson diagonalization with overlap
     ethr =  1.00E-13,  avg # of iterations =  9.2

     total cpu time spent up to now is      133.9 secs

     total energy              =    -735.72554870 Ry
     estimated scf accuracy    <          1.5E-10 Ry

     iteration # 82     ecut=    60.00 Ry     beta= 0.30
     Davidson diagonalization with overlap
     ethr =  1.00E-13,  avg # of iterations =  8.6

     total cpu time spent up to now is      136.1 secs

     total energy              =    -735.72554870 Ry
     estimated scf accuracy    <          4.8E-11 Ry

     iteration # 83     ecut=    60.00 Ry     beta= 0.30
     Davidson diagonalization with overlap
     ethr =  1.00E-13,  avg # of iterations =  2.4

     total cpu time spent up to now is      137.3 secs

     total energy              =    -735.72554870 Ry
     estimated scf accuracy    <          1.1E-11 Ry

     iteration # 84     ecut=    60.00 Ry     beta= 0.30
     Davidson diagonalization with overlap
     ethr =  1.00E-13,  avg # of iterations =  2.2

     total cpu time spent up to now is      138.4 secs

     total energy              =    -735.72554870 Ry
     estimated scf accuracy    <          5.3E-12 Ry

     iteration # 85     ecut=    60.00 Ry     beta= 0.30
     Davidson diagonalization with overlap
     ethr =  1.00E-13,  avg # of iterations =  2.0

     total cpu time spent up to now is      139.6 secs

     total energy              =    -735.72554870 Ry
     estimated scf accuracy    <          2.7E-12 Ry

     iteration # 86     ecut=    60.00 Ry     beta= 0.30
     Davidson diagonalization with overlap
     ethr =  1.00E-13,  avg # of iterations =  1.5

     total cpu time spent up to now is      140.6 secs

     total energy              =    -735.72554870 Ry
     estimated scf accuracy    <          3.1E-12 Ry

     iteration # 87     ecut=    60.00 Ry     beta= 0.30
     Davidson diagonalization with overlap
     ethr =  1.00E-13,  avg # of iterations =  1.3

     total cpu time spent up to now is      141.6 secs

     total energy              =    -735.72554870 Ry
     estimated scf accuracy    <          1.9E-12 Ry

     iteration # 88     ecut=    60.00 Ry     beta= 0.30
     Davidson diagonalization with overlap
     ethr =  1.00E-13,  avg # of iterations =  1.1

     total cpu time spent up to now is      142.7 secs

     total energy              =    -735.72554870 Ry
     estimated scf accuracy    <          2.7E-12 Ry

     iteration # 89     ecut=    60.00 Ry     beta= 0.30
     Davidson diagonalization with overlap
     ethr =  1.00E-13,  avg # of iterations =  1.1

     total cpu time spent up to now is      143.7 secs

     total energy              =    -735.72554870 Ry
     estimated scf accuracy    <          1.3E-12 Ry

     iteration # 90     ecut=    60.00 Ry     beta= 0.30
     Davidson diagonalization with overlap
     ethr =  1.00E-13,  avg # of iterations =  1.0

     total cpu time spent up to now is      144.7 secs

     End of self-consistent calculation

          k = 0.0000 0.0000 0.0000 (  3407 PWs)   bands (ev):

   -45.9952 -22.3362 -22.3362 -22.3362 -14.4012  -6.5094  -5.8212  -5.8212
     0.4202   0.4202   0.4202   8.0091   8.0091   8.0091   9.1752   9.1752
     9.1752  10.1803  10.1803  10.1803

          k = 0.0000 0.0000 0.1250 (  3371 PWs)   bands (ev):

   -45.9950 -22.3442 -22.3358 -22.3358 -14.3832  -6.5185  -5.8159  -5.8086
     0.4451   0.4451   0.4863   7.7458   7.9633   7.9633   8.9929   8.9929
     9.0317   9.7757  10.0624  10.0624

          k = 0.0000 0.0000 0.2500 (  3415 PWs)   bands (ev):

   -45.9947 -22.3638 -22.3351 -22.3351 -14.3390  -6.5903  -5.8031  -5.7181
     0.5068   0.5068   0.6436   7.1204   7.8106   7.8106   8.6797   8.6797
     8.7206   9.0561   9.8456   9.8456

          k = 0.0000 0.0000 0.3750 (  3382 PWs)   bands (ev):

   -45.9943 -22.3832 -22.3343 -22.3343 -14.2938  -6.7042  -5.7902  -5.5703
     0.5709   0.5709   0.7986   6.5146   7.6012   7.6012   8.4478   8.4954
     8.4954   8.5175   9.6695   9.6695

          k = 0.0000 0.0000-0.5000 (  3394 PWs)   bands (ev):

   -45.9942 -22.3912 -22.3340 -22.3340 -14.2748  -6.7576  -5.7848  -5.4983
     0.5983   0.5983   0.8623   6.2698   7.5036   7.5036   8.3237   8.3432
     8.4432   8.4432   9.6035   9.6035

          k = 0.0000 0.1250 0.1250 (  3367 PWs)   bands (ev):

   -45.9949 -22.3441 -22.3437 -22.3355 -14.3660  -6.5125  -5.8120  -5.8023
     0.4176   0.4708   0.5772   7.5743   7.8344   7.9301   8.6144   8.8233
     9.1873   9.5075   9.9248   9.9318

          k = 0.0000 0.1250 0.2500 (  3390 PWs)   bands (ev):

   -45.9945 -22.3634 -22.3431 -22.3347 -14.3241  -6.5490  -5.7951  -5.7345
     0.4494   0.5345   0.6947   7.0380   7.6367   7.8047   8.1569   8.5211
     8.9292   9.1809   9.6749   9.7458

          k = 0.0000 0.1250 0.3750 (  3392 PWs)   bands (ev):

   -45.9942 -22.3827 -22.3422 -22.3340 -14.2813  -6.6368  -5.7777  -5.6023
     0.5206   0.6008   0.7677   6.4743   7.4806   7.6073   7.7437   8.3501
     8.6145   9.1373   9.4747   9.5086

          k = 0.0000 0.1250-0.5000 (  3388 PWs)   bands (ev):

   -45.9940 -22.3907 -22.3419 -22.3336 -14.2633  -6.6818  -5.7705  -5.5346
     0.5604   0.6291   0.7862   6.2396   7.4555   7.5103   7.5488   8.3061
     8.5072   9.1901   9.3490   9.4002

          k = 0.0000 0.2500 0.2500 (  3393 PWs)   bands (ev):

   -45.9942 -22.3628 -22.3619 -22.3340 -14.2878  -6.4815  -5.7881  -5.7231
     0.4078   0.6033   0.7175   6.7831   7.2716   7.5704   7.7631   8.2006
     8.7849   9.2717   9.3603   9.8234

          k = 0.0000 0.2500 0.3750 (  3370 PWs)   bands (ev):

   -45.9938 -22.3815 -22.3613 -22.3332 -14.2508  -6.4732  -5.7600  -5.6629
     0.4353   0.6673   0.6752   6.3793   6.9873   7.1516   7.6223   8.0192
     8.8120   9.1088   9.2526   9.8261

          k = 0.0000 0.2500-0.5000 (  3370 PWs)   bands (ev):

   -45.9936 -22.3894 -22.3609 -22.3329 -14.2353  -6.4866  -5.7432  -5.6231
     0.4801   0.6122   0.7059   6.1740   6.8339   7.0770   7.5288   7.9882
     8.9037   9.0147   9.1821   9.7976

          k = 0.0000 0.3750 0.3750 (  3379 PWs)   bands (ev):

   -45.9934 -22.3805 -22.3801 -22.3325 -14.2198  -6.3176  -5.7617  -5.6887
     0.3956   0.5366   0.7531   6.2034   6.5523   6.6648   7.6191   7.7315
     8.8164   9.0609   9.3830  10.0666

          k = 0.0000 0.3750-0.5000 (  3380 PWs)   bands (ev):

   -45.9933 -22.3881 -22.3798 -22.3322 -14.2068  -6.2627  -5.7371  -5.7127
     0.4141   0.4524   0.7865   6.0606   6.3533   6.5732   7.5517   7.6852
     8.7071   9.2846   9.3368  10.1287

          k = 0.0000-0.5000-0.5000 (  3388 PWs)   bands (ev):

   -45.9931 -22.3876 -22.3876 -22.3319 -14.1949  -6.1522  -5.7501  -5.7501
     0.3905   0.3905   0.8211   5.9489   6.1839   6.4190   7.5632   7.5632
     8.5927   9.4382   9.4382  10.2239

          k = 0.1250 0.1250 0.1250 (  3374 PWs)   bands (ev):

   -45.9947 -22.3440 -22.3434 -22.3434 -14.3497  -6.4952  -5.8037  -5.8037
     0.4218   0.4218   0.6820   7.4015   7.8047   7.8047   8.5254   8.5254
     9.2073   9.3249   9.8358   9.8358

          k = 0.1250 0.1250 0.2500 (  3386 PWs)   bands (ev):

   -45.9944 -22.3630 -22.3429 -22.3426 -14.3098  -6.5032  -5.7835  -5.7496
     0.4315   0.4415   0.7920   6.9419   7.5377   7.7025   8.1764   8.1923
     8.8271   9.3015   9.6191   9.6656

          k = 0.1250 0.1250 0.3750 (  3380 PWs)   bands (ev):

   -45.9940 -22.3822 -22.3420 -22.3418 -14.2691  -6.5682  -5.7631  -5.6264
     0.4401   0.5543   0.8008   6.4373   7.3284   7.5725   7.7016   8.0208
     8.8528   9.1669   9.4124   9.4186

          k = 0.1250 0.1250-0.5000 (  3386 PWs)   bands (ev):

   -45.9939 -22.3902 -22.3417 -22.3414 -14.2520  -6.6056  -5.7546  -5.5611
     0.4433   0.6983   0.7046   6.2152   7.3430   7.4291   7.5205   7.9652
     8.9908   9.1033   9.2083   9.3385

          k = 0.1250 0.2500 0.2500 (  3375 PWs)   bands (ev):

   -45.9940 -22.3624 -22.3615 -22.3419 -14.2749  -6.4229  -5.7726  -5.7329
     0.3629   0.4121   0.8497   6.6926   7.2606   7.4584   7.8420   8.0781
     8.4599   9.3968   9.4478   9.7549

          k = 0.1250 0.2500 0.3750 (  3379 PWs)   bands (ev):

   -45.9936 -22.3811 -22.3609 -22.3411 -14.2394  -6.4011  -5.7403  -5.6696
     0.3374   0.4461   0.7909   6.3556   6.9547   7.1890   7.6283   7.9254
     8.5072   9.2162   9.3853   9.7867

          k = 0.1250 0.2500-0.5000 (  3388 PWs)   bands (ev):

   -45.9935 -22.3889 -22.3605 -22.3408 -14.2245  -6.4093  -5.7230  -5.6270
     0.3231   0.5178   0.7099   6.1630   6.8743   7.0938   7.5260   7.8920
     8.5805   9.2167   9.2554   9.7728

          k = 0.1250 0.3750 0.3750 (  3377 PWs)   bands (ev):

   -45.9933 -22.3801 -22.3797 -22.3404 -14.2092  -6.2410  -5.7391  -5.6775
     0.3027   0.3475   0.7123   6.2078   6.6634   6.6973   7.6435   7.7643
     8.3654   9.2324   9.4888  10.0551

          k = 0.1250 0.3750-0.5000 (  3388 PWs)   bands (ev):

   -45.9931 -22.3877 -22.3794 -22.3400 -14.1965  -6.1841  -5.7124  -5.6955
     0.2768   0.3452   0.6554   6.0622   6.5680   6.5768   7.5968   7.7386
     8.2963   9.4103   9.4133  10.1287

          k = 0.1250-0.5000-0.5000 (  3384 PWs)   bands (ev):

   -45.9930 -22.3872 -22.3872 -22.3397 -14.1848  -6.0717  -5.7246  -5.7246
     0.2780   0.2780   0.6141   5.9516   6.4215   6.4736   7.6490   7.6490
     8.1619   9.5164   9.5164  10.2350

          k = 0.2500 0.2500 0.2500 (  3377 PWs)   bands (ev):

   -45.9936 -22.3617 -22.3607 -22.3607 -14.2434  -6.2996  -5.7345  -5.7345
     0.2541   0.2541   0.8550   6.5332   7.2340   7.2340   7.7377   7.9217
     7.9217   9.5824   9.5824   9.7056

          k = 0.2500 0.2500 0.3750 (  3378 PWs)   bands (ev):

   -45.9933 -22.3800 -22.3603 -22.3598 -14.2115  -6.2243  -5.6954  -5.6815
     0.1445   0.2419   0.7042   6.3220   6.9059   7.2123   7.3439   7.8558
     8.0248   9.4405   9.6850   9.7904

          k = 0.2500 0.2500-0.5000 (  3380 PWs)   bands (ev):

   -45.9931 -22.3878 -22.3599 -22.3595 -14.1981  -6.2117  -5.6789  -5.6386
     0.0989   0.3006   0.5762   6.1380   6.9552   7.1008   7.2059   7.8438
     8.1108   9.3821   9.6921   9.7955

          k = 0.2500 0.3750 0.3750 (  3375 PWs)   bands (ev):

   -45.9929 -22.3791 -22.3787 -22.3592 -14.1833  -6.0503  -5.6828  -5.6510
     0.0501   0.0847   0.4859   6.2148   6.6629   7.0121   7.3084   7.8238
     7.9131   9.5734   9.7377  10.0493

          k = 0.2500 0.3750-0.5000 (  3368 PWs)   bands (ev):

   -45.9927 -22.3867 -22.3785 -22.3588 -14.1714  -5.9859  -5.6535  -5.6526
    -0.0051   0.0974   0.3387   6.0551   6.5855   7.0520   7.2411   7.8264
     7.8990   9.6377   9.7474  10.1381

          k = 0.2500-0.5000-0.5000 (  3396 PWs)   bands (ev):

   -45.9926 -22.3862 -22.3862 -22.3585 -14.1603  -5.8701  -5.6607  -5.6607
     0.0172   0.0172   0.1798   5.9425   6.4277   7.1081   7.2934   7.7999
     7.7999   9.7733   9.7733  10.2619

          k = 0.3750 0.3750 0.3750 (  3364 PWs)   bands (ev):

   -45.9925 -22.3782 -22.3778 -22.3778 -14.1570  -5.8515  -5.6241  -5.6241
    -0.1261  -0.1261   0.1789   6.1207   6.6652   6.6652   7.4140   7.8620
     7.8620   9.9262   9.9262  10.1185

          k = 0.3750 0.3750-0.5000 (  3372 PWs)   bands (ev):

   -45.9924 -22.3857 -22.3776 -22.3774 -14.1461  -5.7681  -5.6111  -5.5989
    -0.2116  -0.1376   0.0010   5.9723   6.5548   6.6666   7.5004   7.8728
     7.8905   9.9639  10.0676  10.1900

          k = 0.3750-0.5000-0.5000 (  3376 PWs)   bands (ev):

   -45.9922 -22.3853 -22.3853 -22.3771 -14.1355  -5.6567  -5.5934  -5.5934
    -0.2317  -0.2317  -0.1915   5.8604   6.4339   6.6255   7.6793   7.8829
     7.8829  10.1264  10.1264  10.2892

          k =-0.5000-0.5000-0.5000 (  3328 PWs)   bands (ev):

   -45.9920 -22.3848 -22.3848 -22.3848 -14.1251  -5.5644  -5.5644  -5.5644
    -0.3320  -0.3320  -0.3320   5.7620   6.4366   6.4366   7.9021   7.9021
     7.9021  10.3008  10.3008  10.3008

     highest occupied level (ev):    10.3008

!    total energy              =    -735.72554870 Ry

     total all-electron energy =    -18421.418784 Ry
     estimated scf accuracy    <          3.1E-13 Ry

     The total energy is the sum of the following terms:
     one-electron contribution =     -67.01074000 Ry
     hartree contribution      =      59.47328380 Ry
     xc contribution           =     -60.80873365 Ry
     ewald contribution        =    -207.66016563 Ry
     one-center paw contrib.   =    -459.71919322 Ry

     convergence has been achieved in  90 iterations

     Forces acting on atoms (cartesian axes, Ry/au):

     atom    1 type  1   force =     0.00000000    0.00000000    0.00000000
     atom    2 type  2   force =     0.00000000    0.00000000    0.00000000
     atom    3 type  3   force =     0.00000000    0.00000000    0.00000000
     atom    4 type  3   force =     0.00000000    0.00000000    0.00000000
     atom    5 type  3   force =     0.00000000    0.00000000    0.00000000

     Total force =     0.000000     Total SCF correction =     0.000000


     Computing stress (Cartesian axis) and pressure

          total   stress  (Ry/bohr**3)                   (kbar)     P=      -26.09
  -0.00017738   0.00000000   0.00000000          -26.09        0.00        0.00
   0.00000000  -0.00017738   0.00000000            0.00      -26.09        0.00
   0.00000000   0.00000000  -0.00017738            0.00        0.00      -26.09


     Writing output data file ./tmp/BaTiO3_pbesol_hydro_p005.save/

     init_run     :      0.84s CPU      0.88s WALL (       1 calls)
     electrons    :    140.68s CPU    143.31s WALL (       1 calls)
     forces       :      0.29s CPU      0.29s WALL (       1 calls)
     stress       :      0.75s CPU      0.75s WALL (       1 calls)

     Called by init_run:
     wfcinit      :      0.40s CPU      0.41s WALL (       1 calls)
     potinit      :      0.13s CPU      0.14s WALL (       1 calls)
     hinit0       :      0.18s CPU      0.18s WALL (       1 calls)

     Called by electrons:
     c_bands      :    112.21s CPU    114.42s WALL (      90 calls)
     sum_band     :     13.98s CPU     14.24s WALL (      90 calls)
     v_of_rho     :      0.87s CPU      0.91s WALL (      91 calls)
     newd         :      4.10s CPU      4.12s WALL (      91 calls)
     PAW_pot      :      9.38s CPU      9.48s WALL (      91 calls)
     mix_rho      :      0.16s CPU      0.17s WALL (      90 calls)

     Called by c_bands:
     init_us_2    :      1.32s CPU      1.34s WALL (    6405 calls)
     cegterg      :    108.12s CPU    110.28s WALL (    3150 calls)

     Called by *egterg:
     cdiaghg      :     14.34s CPU     14.66s WALL (   19297 calls)
     h_psi        :     52.58s CPU     54.07s WALL (   19332 calls)
     s_psi        :     10.13s CPU     10.19s WALL (   19332 calls)
     g_psi        :      0.40s CPU      0.40s WALL (   16147 calls)

     Called by h_psi:
     h_psi:calbec :      9.72s CPU     10.10s WALL (   19332 calls)
     vloc_psi     :     32.57s CPU     33.59s WALL (   19332 calls)
     add_vuspsi   :      9.96s CPU     10.06s WALL (   19332 calls)

     General routines
     calbec       :     12.80s CPU     13.27s WALL (   22657 calls)
     fft          :      0.54s CPU      0.58s WALL (    1206 calls)
     ffts         :      0.03s CPU      0.03s WALL (     181 calls)
     fftw         :     33.02s CPU     34.03s WALL (  460754 calls)
     interpolate  :      0.06s CPU      0.07s WALL (      91 calls)

     Parallel routines
     fft_scatt_xy :      4.43s CPU      4.57s WALL (  462141 calls)
     fft_scatt_yz :      8.62s CPU      8.91s WALL (  462141 calls)

     PWSCF        :   2m23.05s CPU   2m25.78s WALL


   This run was terminated on:  16:49: 5  22Jul2026            

=------------------------------------------------------------------------------=
   JOB DONE.
=------------------------------------------------------------------------------=
